# z x epsr mur sigma
0 0 1.0 1.0 0.0
0 1 1.0 1.0 0.0
0 2 1.0 1.0 0.0
0 3 1.0 1.0 0.0
0 4 1.37 1.0 0.008
0 5 1.0 1.0 0.0
0 6 1.0 1.0 0.0
0 7 1.0 1.0 0.0
0 8 1.0 1.0 0.0
0 9 1.0 1.0 0.0
0 10 1.0 1.0 0.0
0 11 1.0 1.0 0.0
0 12 1.0 1.0 0.0
0 13 1.0 1.0 0.0
0 14 1.0 1.0 0.0
0 15 1.0 1.0 0.0
0 16 1.0 1.0 0.0
0 17 1.0 1.0 0.0
0 18 1.0 1.0 0.0
0 19 1.0 1.0 0.0
1 0 1.0 1.0 0.0
1 1 1.0 1.0 0.0
1 2 1.0 1.0 0.0
1 3 1.37 1.0 0.008
1 4 1.37 1.0 0.008
1 5 1.37 1.0 0.008
1 6 1.0 1.0 0.0
1 7 1.0 1.0 0.0
1 8 1.0 1.0 0.0
1 9 1.0 1.0 0.0
1 10 1.0 1.0 0.0
1 11 1.0 1.0 0.0
1 12 1.0 1.0 0.0
1 13 1.46 1.0 0.0419
1 14 1.46 1.0 0.0419
1 15 1.0 1.0 0.0
1 16 1.0 1.0 0.0
1 17 1.0 1.0 0.0
1 18 1.0 1.0 0.0
1 19 1.0 1.0 0.0
2 0 1.0 1.0 0.0
2 1 1.0 1.0 0.0
2 2 1.37 1.0 0.008
2 3 1.37 1.0 0.008
2 4 1.37 1.0 0.008
2 5 1.37 1.0 0.008
2 6 1.37 1.0 0.008
2 7 1.0 1.0 0.0
2 8 1.0 1.0 0.0
2 9 1.0 1.0 0.0
2 10 1.0 1.0 0.0
2 11 1.0 1.0 0.0
2 12 1.0 1.0 0.0
2 13 1.46 1.0 0.0419
2 14 1.46 1.0 0.0419
2 15 1.0 1.0 0.0
2 16 1.0 1.0 0.0
2 17 1.0 1.0 0.0
2 18 1.0 1.0 0.0
2 19 1.0 1.0 0.0
3 0 1.0 1.0 0.0
3 1 1.0 1.0 0.0
3 2 1.0 1.0 0.0
3 3 1.37 1.0 0.008
3 4 1.37 1.0 0.008
3 5 1.37 1.0 0.008
3 6 1.0 1.0 0.0
3 7 1.0 1.0 0.0
3 8 1.0 1.0 0.0
3 9 1.0 1.0 0.0
3 10 1.0 1.0 0.0
3 11 1.0 1.0 0.0
3 12 1.0 1.0 0.0
3 13 1.46 1.0 0.0419
3 14 1.46 1.0 0.0419
3 15 1.0 1.0 0.0
3 16 1.0 1.0 0.0
3 17 1.0 1.0 0.0
3 18 2.24 1.0 0.0337
3 19 2.24 1.0 0.0337
4 0 1.0 1.0 0.0
4 1 1.0 1.0 0.0
4 2 1.0 1.0 0.0
4 3 1.0 1.0 0.0
4 4 1.37 1.0 0.008
4 5 1.0 1.0 0.0
4 6 1.0 1.0 0.0
4 7 1.0 1.0 0.0
4 8 1.0 1.0 0.0
4 9 1.0 1.0 0.0
4 10 1.0 1.0 0.0
4 11 1.0 1.0 0.0
4 12 1.0 1.0 0.0
4 13 1.46 1.0 0.0419
4 14 1.46 1.0 0.0419
4 15 1.0 1.0 0.0
4 16 1.0 1.0 0.0
4 17 2.22 1.0 0.0428
4 18 2.24 1.0 0.0337
4 19 2.24 1.0 0.0337
5 0 1.0 1.0 0.0
5 1 1.0 1.0 0.0
5 2 1.0 1.0 0.0
5 3 1.0 1.0 0.0
5 4 1.0 1.0 0.0
5 5 1.0 1.0 0.0
5 6 1.0 1.0 0.0
5 7 1.0 1.0 0.0
5 8 1.0 1.0 0.0
5 9 1.0 1.0 0.0
5 10 1.0 1.0 0.0
5 11 1.49 1.0 0.046
5 12 1.0 1.0 0.0
5 13 1.0 1.0 0.0
5 14 1.0 1.0 0.0
5 15 1.0 1.0 0.0
5 16 2.22 1.0 0.0428
5 17 2.22 1.0 0.0428
5 18 2.24 1.0 0.0337
5 19 2.24 1.0 0.0337
6 0 1.0 1.0 0.0
6 1 1.0 1.0 0.0
6 2 1.0 1.0 0.0
6 3 1.0 1.0 0.0
6 4 1.0 1.0 0.0
6 5 1.0 1.0 0.0
6 6 1.0 1.0 0.0
6 7 1.0 1.0 0.0
6 8 1.0 1.0 0.0
6 9 1.0 1.0 0.0
6 10 1.49 1.0 0.046
6 11 1.49 1.0 0.046
6 12 1.0 1.0 0.0
6 13 1.0 1.0 0.0
6 14 1.0 1.0 0.0
6 15 2.22 1.0 0.0428
6 16 2.22 1.0 0.0428
6 17 2.22 1.0 0.0428
6 18 1.0 1.0 0.0
6 19 1.0 1.0 0.0
7 0 1.0 1.0 0.0
7 1 1.0 1.0 0.0
7 2 1.0 1.0 0.0
7 3 2.49 1.0 0.0125
7 4 1.0 1.0 0.0
7 5 1.0 1.0 0.0
7 6 1.0 1.0 0.0
7 7 1.0 1.0 0.0
7 8 1.0 1.0 0.0
7 9 1.49 1.0 0.046
7 10 1.49 1.0 0.046
7 11 1.49 1.0 0.046
7 12 1.0 1.0 0.0
7 13 2.22 1.0 0.0428
7 14 2.22 1.0 0.0428
7 15 2.22 1.0 0.0428
7 16 2.22 1.0 0.0428
7 17 2.22 1.0 0.0428
7 18 1.0 1.0 0.0
7 19 1.0 1.0 0.0
8 0 1.0 1.0 0.0
8 1 1.0 1.0 0.0
8 2 1.0 1.0 0.0
8 3 1.0 1.0 0.0
8 4 2.49 1.0 0.0125
8 5 2.49 1.0 0.0125
8 6 1.0 1.0 0.0
8 7 1.0 1.0 0.0
8 8 1.49 1.0 0.046
8 9 1.49 1.0 0.046
8 10 1.49 1.0 0.046
8 11 1.49 1.0 0.046
8 12 1.0 1.0 0.0
8 13 1.0 1.0 0.0
8 14 1.0 1.0 0.0
8 15 1.0 1.0 0.0
8 16 2.22 1.0 0.0428
8 17 2.22 1.0 0.0428
8 18 1.0 1.0 0.0
8 19 1.0 1.0 0.0
9 0 1.0 1.0 0.0
9 1 1.0 1.0 0.0
9 2 1.0 1.0 0.0
9 3 1.0 1.0 0.0
9 4 2.49 1.0 0.0125
9 5 2.49 1.0 0.0125
9 6 2.49 1.0 0.0125
9 7 2.49 1.0 0.0125
9 8 2.49 1.0 0.0125
9 9 1.0 1.0 0.0
9 10 1.0 1.0 0.0
9 11 1.0 1.0 0.0
9 12 1.0 1.0 0.0
9 13 1.0 1.0 0.0
9 14 1.0 1.0 0.0
9 15 1.0 1.0 0.0
9 16 1.35 1.0 0.0366
9 17 1.0 1.0 0.0
9 18 2.22 1.0 0.0428
9 19 1.0 1.0 0.0
10 0 1.0 1.0 0.0
10 1 1.0 1.0 0.0
10 2 1.0 1.0 0.0
10 3 1.0 1.0 0.0
10 4 2.49 1.0 0.0125
10 5 2.49 1.0 0.0125
10 6 2.49 1.0 0.0125
10 7 1.0 1.0 0.0
10 8 1.0 1.0 0.0
10 9 1.0 1.0 0.0
10 10 1.0 1.0 0.0
10 11 1.0 1.0 0.0
10 12 1.0 1.0 0.0
10 13 1.0 1.0 0.0
10 14 1.0 1.0 0.0
10 15 1.35 1.0 0.0366
10 16 1.35 1.0 0.0366
10 17 1.35 1.0 0.0366
10 18 1.0 1.0 0.0
10 19 1.0 1.0 0.0
11 0 1.0 1.0 0.0
11 1 1.0 1.0 0.0
11 2 1.0 1.0 0.0
11 3 1.0 1.0 0.0
11 4 2.49 1.0 0.0125
11 5 2.49 1.0 0.0125
11 6 1.0 1.0 0.0
11 7 1.0 1.0 0.0
11 8 1.0 1.0 0.0
11 9 1.0 1.0 0.0
11 10 1.0 1.0 0.0
11 11 1.0 1.0 0.0
11 12 1.0 1.0 0.0
11 13 1.0 1.0 0.0
11 14 1.35 1.0 0.0366
11 15 1.35 1.0 0.0366
11 16 1.35 1.0 0.0366
11 17 1.35 1.0 0.0366
11 18 1.35 1.0 0.0366
11 19 1.0 1.0 0.0
12 0 1.0 1.0 0.0
12 1 1.0 1.0 0.0
12 2 1.0 1.0 0.0
12 3 1.0 1.0 0.0
12 4 2.49 1.0 0.0125
12 5 1.0 1.0 0.0
12 6 1.0 1.0 0.0
12 7 1.0 1.0 0.0
12 8 1.0 1.0 0.0
12 9 1.0 1.0 0.0
12 10 1.69 1.0 0.0083
12 11 1.0 1.0 0.0
12 12 1.0 1.0 0.0
12 13 1.0 1.0 0.0
12 14 1.0 1.0 0.0
12 15 1.35 1.0 0.0366
12 16 1.35 1.0 0.0366
12 17 1.35 1.0 0.0366
12 18 1.0 1.0 0.0
12 19 1.0 1.0 0.0
13 0 1.0 1.0 0.0
13 1 1.0 1.0 0.0
13 2 1.0 1.0 0.0
13 3 1.0 1.0 0.0
13 4 1.0 1.0 0.0
13 5 1.0 1.0 0.0
13 6 1.0 1.0 0.0
13 7 1.0 1.0 0.0
13 8 1.0 1.0 0.0
13 9 1.0 1.0 0.0
13 10 1.69 1.0 0.0083
13 11 1.69 1.0 0.0083
13 12 1.0 1.0 0.0
13 13 1.0 1.0 0.0
13 14 1.0 1.0 0.0
13 15 1.0 1.0 0.0
13 16 1.35 1.0 0.0366
13 17 1.0 1.0 0.0
13 18 1.0 1.0 0.0
13 19 1.0 1.0 0.0
14 0 1.0 1.0 0.0
14 1 1.0 1.0 0.0
14 2 1.0 1.0 0.0
14 3 1.0 1.0 0.0
14 4 1.0 1.0 0.0
14 5 1.0 1.0 0.0
14 6 1.0 1.0 0.0
14 7 1.0 1.0 0.0
14 8 1.0 1.0 0.0
14 9 1.0 1.0 0.0
14 10 1.69 1.0 0.0083
14 11 1.69 1.0 0.0083
14 12 1.69 1.0 0.0083
14 13 1.69 1.0 0.0083
14 14 1.0 1.0 0.0
14 15 1.0 1.0 0.0
14 16 1.0 1.0 0.0
14 17 1.0 1.0 0.0
14 18 1.0 1.0 0.0
14 19 1.0 1.0 0.0
15 0 1.0 1.0 0.0
15 1 1.0 1.0 0.0
15 2 1.0 1.0 0.0
15 3 1.0 1.0 0.0
15 4 1.0 1.0 0.0
15 5 1.0 1.0 0.0
15 6 1.0 1.0 0.0
15 7 1.0 1.0 0.0
15 8 1.0 1.0 0.0
15 9 1.0 1.0 0.0
15 10 1.69 1.0 0.0083
15 11 1.69 1.0 0.0083
15 12 1.69 1.0 0.0083
15 13 1.69 1.0 0.0083
15 14 1.69 1.0 0.0083
15 15 1.0 1.0 0.0
15 16 1.0 1.0 0.0
15 17 1.0 1.0 0.0
15 18 1.0 1.0 0.0
15 19 1.0 1.0 0.0
16 0 1.0 1.0 0.0
16 1 1.0 1.0 0.0
16 2 1.0 1.0 0.0
16 3 1.0 1.0 0.0
16 4 1.0 1.0 0.0
16 5 1.0 1.0 0.0
16 6 1.0 1.0 0.0
16 7 1.0 1.0 0.0
16 8 1.0 1.0 0.0
16 9 1.0 1.0 0.0
16 10 1.69 1.0 0.0083
16 11 1.69 1.0 0.0083
16 12 1.69 1.0 0.0083
16 13 1.69 1.0 0.0083
16 14 1.69 1.0 0.0083
16 15 1.69 1.0 0.0083
16 16 1.69 1.0 0.0083
16 17 1.0 1.0 0.0
16 18 1.0 1.0 0.0
16 19 1.0 1.0 0.0
17 0 1.0 1.0 0.0
17 1 1.0 1.0 0.0
17 2 1.0 1.0 0.0
17 3 1.0 1.0 0.0
17 4 1.0 1.0 0.0
17 5 1.0 1.0 0.0
17 6 1.0 1.0 0.0
17 7 1.0 1.0 0.0
17 8 1.0 1.0 0.0
17 9 1.0 1.0 0.0
17 10 1.69 1.0 0.0083
17 11 1.69 1.0 0.0083
17 12 1.69 1.0 0.0083
17 13 1.69 1.0 0.0083
17 14 1.69 1.0 0.0083
17 15 1.0 1.0 0.0
17 16 1.0 1.0 0.0
17 17 1.0 1.0 0.0
17 18 1.0 1.0 0.0
17 19 1.0 1.0 0.0
18 0 1.0 1.0 0.0
18 1 1.0 1.0 0.0
18 2 1.0 1.0 0.0
18 3 1.0 1.0 0.0
18 4 1.0 1.0 0.0
18 5 1.0 1.0 0.0
18 6 1.0 1.0 0.0
18 7 1.0 1.0 0.0
18 8 1.0 1.0 0.0
18 9 1.0 1.0 0.0
18 10 1.69 1.0 0.0083
18 11 1.69 1.0 0.0083
18 12 1.69 1.0 0.0083
18 13 1.0 1.0 0.0
18 14 1.0 1.0 0.0
18 15 1.0 1.0 0.0
18 16 1.0 1.0 0.0
18 17 1.0 1.0 0.0
18 18 1.0 1.0 0.0
18 19 1.0 1.0 0.0
19 0 1.0 1.0 0.0
19 1 1.0 1.0 0.0
19 2 1.0 1.0 0.0
19 3 1.0 1.0 0.0
19 4 1.0 1.0 0.0
19 5 1.0 1.0 0.0
19 6 1.0 1.0 0.0
19 7 1.0 1.0 0.0
19 8 1.0 1.0 0.0
19 9 1.0 1.0 0.0
19 10 1.69 1.0 0.0083
19 11 1.0 1.0 0.0
19 12 1.0 1.0 0.0
19 13 1.0 1.0 0.0
19 14 1.0 1.0 0.0
19 15 1.0 1.0 0.0
19 16 1.0 1.0 0.0
19 17 1.0 1.0 0.0
19 18 1.0 1.0 0.0
19 19 1.0 1.0 0.0
