# z x epsr mur sigma
0 0 1.0 1.0 0.0
0 1 1.0 1.0 0.0
0 2 1.0 1.0 0.0
0 3 1.0 1.0 0.0
0 4 1.0 1.0 0.0
0 5 1.0 1.0 0.0
0 6 1.0 1.0 0.0
0 7 1.0 1.0 0.0
0 8 1.0 1.0 0.0
0 9 1.0 1.0 0.0
0 10 1.0 1.0 0.0
0 11 1.0 1.0 0.0
0 12 1.0 1.0 0.0
0 13 1.0 1.0 0.0
0 14 1.0 1.0 0.0
0 15 1.0 1.0 0.0
0 16 1.0 1.0 0.0
0 17 1.0 1.0 0.0
0 18 1.0 1.0 0.0
0 19 1.0 1.0 0.0
1 0 1.0 1.0 0.0
1 1 1.0 1.0 0.0
1 2 1.0 1.0 0.0
1 3 1.0 1.0 0.0
1 4 1.0 1.0 0.0
1 5 1.0 1.0 0.0
1 6 1.0 1.0 0.0
1 7 1.0 1.0 0.0
1 8 1.84 1.0 0.0494
1 9 1.84 1.0 0.0494
1 10 1.0 1.0 0.0
1 11 1.0 1.0 0.0
1 12 1.0 1.0 0.0
1 13 1.0 1.0 0.0
1 14 1.19 1.0 0.0186
1 15 1.0 1.0 0.0
1 16 1.0 1.0 0.0
1 17 1.0 1.0 0.0
1 18 1.0 1.0 0.0
1 19 1.0 1.0 0.0
2 0 1.0 1.0 0.0
2 1 1.0 1.0 0.0
2 2 1.0 1.0 0.0
2 3 1.0 1.0 0.0
2 4 1.4 1.0 0.022
2 5 1.0 1.0 0.0
2 6 1.0 1.0 0.0
2 7 1.0 1.0 0.0
2 8 1.84 1.0 0.0494
2 9 1.84 1.0 0.0494
2 10 1.0 1.0 0.0
2 11 1.0 1.0 0.0
2 12 1.0 1.0 0.0
2 13 1.19 1.0 0.0186
2 14 1.19 1.0 0.0186
2 15 1.19 1.0 0.0186
2 16 1.0 1.0 0.0
2 17 1.0 1.0 0.0
2 18 1.0 1.0 0.0
2 19 1.0 1.0 0.0
3 0 1.0 1.0 0.0
3 1 1.0 1.0 0.0
3 2 1.0 1.0 0.0
3 3 1.4 1.0 0.022
3 4 1.4 1.0 0.022
3 5 1.4 1.0 0.022
3 6 1.0 1.0 0.0
3 7 1.0 1.0 0.0
3 8 1.84 1.0 0.0494
3 9 1.84 1.0 0.0494
3 10 1.0 1.0 0.0
3 11 1.0 1.0 0.0
3 12 1.19 1.0 0.0186
3 13 1.19 1.0 0.0186
3 14 1.19 1.0 0.0186
3 15 1.19 1.0 0.0186
3 16 1.19 1.0 0.0186
3 17 1.0 1.0 0.0
3 18 1.0 1.0 0.0
3 19 1.0 1.0 0.0
4 0 1.0 1.0 0.0
4 1 1.0 1.0 0.0
4 2 1.4 1.0 0.022
4 3 1.4 1.0 0.022
4 4 1.4 1.0 0.022
4 5 1.4 1.0 0.022
4 6 1.4 1.0 0.022
4 7 1.0 1.0 0.0
4 8 1.0 1.0 0.0
4 9 1.0 1.0 0.0
4 10 1.0 1.0 0.0
4 11 1.0 1.0 0.0
4 12 1.0 1.0 0.0
4 13 1.19 1.0 0.0186
4 14 1.19 1.0 0.0186
4 15 1.19 1.0 0.0186
4 16 1.0 1.0 0.0
4 17 1.0 1.0 0.0
4 18 1.0 1.0 0.0
4 19 1.0 1.0 0.0
5 0 1.0 1.0 0.0
5 1 1.0 1.0 0.0
5 2 1.0 1.0 0.0
5 3 1.4 1.0 0.022
5 4 1.4 1.0 0.022
5 5 1.4 1.0 0.022
5 6 1.0 1.0 0.0
5 7 1.0 1.0 0.0
5 8 1.0 1.0 0.0
5 9 1.0 1.0 0.0
5 10 1.0 1.0 0.0
5 11 1.0 1.0 0.0
5 12 1.0 1.0 0.0
5 13 1.0 1.0 0.0
5 14 1.19 1.0 0.0186
5 15 1.0 1.0 0.0
5 16 1.0 1.0 0.0
5 17 1.0 1.0 0.0
5 18 1.0 1.0 0.0
5 19 1.0 1.0 0.0
6 0 1.0 1.0 0.0
6 1 1.0 1.0 0.0
6 2 1.0 1.0 0.0
6 3 1.0 1.0 0.0
6 4 1.4 1.0 0.022
6 5 1.0 1.0 0.0
6 6 1.0 1.0 0.0
6 7 1.0 1.0 0.0
6 8 1.0 1.0 0.0
6 9 1.0 1.0 0.0
6 10 1.0 1.0 0.0
6 11 1.0 1.0 0.0
6 12 1.0 1.0 0.0
6 13 1.0 1.0 0.0
6 14 1.0 1.0 0.0
6 15 1.0 1.0 0.0
6 16 1.0 1.0 0.0
6 17 1.0 1.0 0.0
6 18 1.0 1.0 0.0
6 19 1.0 1.0 0.0
7 0 1.0 1.0 0.0
7 1 1.0 1.0 0.0
7 2 1.0 1.0 0.0
7 3 1.0 1.0 0.0
7 4 1.0 1.0 0.0
7 5 1.0 1.0 0.0
7 6 1.0 1.0 0.0
7 7 1.0 1.0 0.0
7 8 1.0 1.0 0.0
7 9 1.0 1.0 0.0
7 10 1.0 1.0 0.0
7 11 1.0 1.0 0.0
7 12 1.0 1.0 0.0
7 13 1.0 1.0 0.0
7 14 1.0 1.0 0.0
7 15 1.0 1.0 0.0
7 16 1.0 1.0 0.0
7 17 1.0 1.0 0.0
7 18 1.0 1.0 0.0
7 19 1.0 1.0 0.0
8 0 1.0 1.0 0.0
8 1 1.0 1.0 0.0
8 2 1.0 1.0 0.0
8 3 1.0 1.0 0.0
8 4 1.0 1.0 0.0
8 5 1.0 1.0 0.0
8 6 1.0 1.0 0.0
8 7 1.0 1.0 0.0
8 8 1.0 1.0 0.0
8 9 1.0 1.0 0.0
8 10 1.0 1.0 0.0
8 11 1.0 1.0 0.0
8 12 1.0 1.0 0.0
8 13 1.0 1.0 0.0
8 14 1.0 1.0 0.0
8 15 1.0 1.0 0.0
8 16 1.0 1.0 0.0
8 17 1.0 1.0 0.0
8 18 1.0 1.0 0.0
8 19 1.0 1.0 0.0
9 0 1.0 1.0 0.0
9 1 1.0 1.0 0.0
9 2 1.0 1.0 0.0
9 3 1.0 1.0 0.0
9 4 1.0 1.0 0.0
9 5 1.0 1.0 0.0
9 6 1.0 1.0 0.0
9 7 1.0 1.0 0.0
9 8 1.0 1.0 0.0
9 9 1.0 1.0 0.0
9 10 1.0 1.0 0.0
9 11 1.0 1.0 0.0
9 12 1.0 1.0 0.0
9 13 1.0 1.0 0.0
9 14 1.0 1.0 0.0
9 15 1.0 1.0 0.0
9 16 1.0 1.0 0.0
9 17 1.0 1.0 0.0
9 18 1.0 1.0 0.0
9 19 1.0 1.0 0.0
10 0 1.0 1.0 0.0
10 1 1.0 1.0 0.0
10 2 1.0 1.0 0.0
10 3 1.0 1.0 0.0
10 4 1.0 1.0 0.0
10 5 1.0 1.0 0.0
10 6 2.15 1.0 0.0255
10 7 2.15 1.0 0.0255
10 8 2.15 1.0 0.0255
10 9 2.15 1.0 0.0255
10 10 2.15 1.0 0.0255
10 11 2.15 1.0 0.0255
10 12 2.15 1.0 0.0255
10 13 2.15 1.0 0.0255
10 14 1.0 1.0 0.0
10 15 1.0 1.0 0.0
10 16 1.0 1.0 0.0
10 17 1.0 1.0 0.0
10 18 1.0 1.0 0.0
10 19 1.0 1.0 0.0
11 0 1.0 1.0 0.0
11 1 1.0 1.0 0.0
11 2 1.0 1.0 0.0
11 3 1.0 1.0 0.0
11 4 1.0 1.0 0.0
11 5 1.0 1.0 0.0
11 6 1.0 1.0 0.0
11 7 2.15 1.0 0.0255
11 8 2.15 1.0 0.0255
11 9 2.15 1.0 0.0255
11 10 2.15 1.0 0.0255
11 11 2.15 1.0 0.0255
11 12 2.15 1.0 0.0255
11 13 1.0 1.0 0.0
11 14 1.0 1.0 0.0
11 15 1.0 1.0 0.0
11 16 1.0 1.0 0.0
11 17 1.03 1.0 0.0016
11 18 1.03 1.0 0.0016
11 19 1.03 1.0 0.0016
12 0 1.0 1.0 0.0
12 1 1.0 1.0 0.0
12 2 1.0 1.0 0.0
12 3 1.0 1.0 0.0
12 4 1.0 1.0 0.0
12 5 1.0 1.0 0.0
12 6 1.0 1.0 0.0
12 7 1.0 1.0 0.0
12 8 2.15 1.0 0.0255
12 9 2.15 1.0 0.0255
12 10 2.15 1.0 0.0255
12 11 2.15 1.0 0.0255
12 12 2.15 1.0 0.0255
12 13 1.0 1.0 0.0
12 14 1.0 1.0 0.0
12 15 1.0 1.0 0.0
12 16 1.0 1.0 0.0
12 17 1.03 1.0 0.0016
12 18 1.03 1.0 0.0016
12 19 1.03 1.0 0.0016
13 0 1.0 1.0 0.0
13 1 1.0 1.0 0.0
13 2 1.0 1.0 0.0
13 3 1.0 1.0 0.0
13 4 1.0 1.0 0.0
13 5 1.0 1.0 0.0
13 6 1.0 1.0 0.0
13 7 1.0 1.0 0.0
13 8 2.15 1.0 0.0255
13 9 2.15 1.0 0.0255
13 10 2.15 1.0 0.0255
13 11 2.15 1.0 0.0255
13 12 1.0 1.0 0.0
13 13 1.0 1.0 0.0
13 14 1.0 1.0 0.0
13 15 1.0 1.0 0.0
13 16 1.0 1.0 0.0
13 17 1.0 1.0 0.0
13 18 1.0 1.0 0.0
13 19 1.0 1.0 0.0
14 0 1.0 1.0 0.0
14 1 1.0 1.0 0.0
14 2 1.0 1.0 0.0
14 3 1.0 1.0 0.0
14 4 1.0 1.0 0.0
14 5 1.0 1.0 0.0
14 6 1.0 1.0 0.0
14 7 1.22 1.0 0.0313
14 8 1.0 1.0 0.0
14 9 2.15 1.0 0.0255
14 10 2.15 1.0 0.0255
14 11 2.15 1.0 0.0255
14 12 1.0 1.0 0.0
14 13 1.0 1.0 0.0
14 14 1.0 1.0 0.0
14 15 1.0 1.0 0.0
14 16 1.0 1.0 0.0
14 17 1.0 1.0 0.0
14 18 1.0 1.0 0.0
14 19 1.0 1.0 0.0
15 0 1.0 1.0 0.0
15 1 1.0 1.0 0.0
15 2 1.0 1.0 0.0
15 3 1.0 1.0 0.0
15 4 1.0 1.0 0.0
15 5 1.0 1.0 0.0
15 6 1.22 1.0 0.0313
15 7 1.22 1.0 0.0313
15 8 1.0 1.0 0.0
15 9 1.0 1.0 0.0
15 10 2.15 1.0 0.0255
15 11 1.0 1.0 0.0
15 12 1.0 1.0 0.0
15 13 1.0 1.0 0.0
15 14 1.0 1.0 0.0
15 15 1.0 1.0 0.0
15 16 1.0 1.0 0.0
15 17 1.91 1.0 0.0143
15 18 1.91 1.0 0.0143
15 19 1.0 1.0 0.0
16 0 1.0 1.0 0.0
16 1 1.0 1.0 0.0
16 2 1.0 1.0 0.0
16 3 1.0 1.0 0.0
16 4 1.22 1.0 0.0313
16 5 1.22 1.0 0.0313
16 6 1.22 1.0 0.0313
16 7 1.22 1.0 0.0313
16 8 1.0 1.0 0.0
16 9 1.0 1.0 0.0
16 10 2.15 1.0 0.0255
16 11 1.0 1.0 0.0
16 12 1.0 1.0 0.0
16 13 1.0 1.0 0.0
16 14 1.0 1.0 0.0
16 15 1.0 1.0 0.0
16 16 1.0 1.0 0.0
16 17 1.91 1.0 0.0143
16 18 1.91 1.0 0.0143
16 19 1.0 1.0 0.0
17 0 1.0 1.0 0.0
17 1 1.0 1.0 0.0
17 2 1.0 1.0 0.0
17 3 1.0 1.0 0.0
17 4 1.0 1.0 0.0
17 5 1.0 1.0 0.0
17 6 1.22 1.0 0.0313
17 7 1.22 1.0 0.0313
17 8 1.0 1.0 0.0
17 9 1.0 1.0 0.0
17 10 1.0 1.0 0.0
17 11 1.0 1.0 0.0
17 12 1.0 1.0 0.0
17 13 1.0 1.0 0.0
17 14 1.0 1.0 0.0
17 15 1.0 1.0 0.0
17 16 1.0 1.0 0.0
17 17 1.0 1.0 0.0
17 18 1.0 1.0 0.0
17 19 1.0 1.0 0.0
18 0 1.0 1.0 0.0
18 1 1.0 1.0 0.0
18 2 1.0 1.0 0.0
18 3 1.0 1.0 0.0
18 4 1.0 1.0 0.0
18 5 1.0 1.0 0.0
18 6 1.0 1.0 0.0
18 7 1.22 1.0 0.0313
18 8 1.0 1.0 0.0
18 9 1.0 1.0 0.0
18 10 1.0 1.0 0.0
18 11 1.0 1.0 0.0
18 12 1.0 1.0 0.0
18 13 1.0 1.0 0.0
18 14 1.0 1.0 0.0
18 15 1.0 1.0 0.0
18 16 1.0 1.0 0.0
18 17 1.0 1.0 0.0
18 18 1.0 1.0 0.0
18 19 1.0 1.0 0.0
19 0 1.0 1.0 0.0
19 1 1.0 1.0 0.0
19 2 1.0 1.0 0.0
19 3 1.0 1.0 0.0
19 4 1.0 1.0 0.0
19 5 1.0 1.0 0.0
19 6 1.0 1.0 0.0
19 7 1.0 1.0 0.0
19 8 1.0 1.0 0.0
19 9 1.0 1.0 0.0
19 10 1.0 1.0 0.0
19 11 1.0 1.0 0.0
19 12 1.0 1.0 0.0
19 13 1.0 1.0 0.0
19 14 1.0 1.0 0.0
19 15 1.0 1.0 0.0
19 16 1.0 1.0 0.0
19 17 1.0 1.0 0.0
19 18 1.0 1.0 0.0
19 19 1.0 1.0 0.0
