# z x epsr mur sigma
0 0 1.0 1.0 0.0
0 1 1.0 1.0 0.0
0 2 1.0 1.0 0.0
0 3 1.0 1.0 0.0
0 4 1.0 1.0 0.0
0 5 1.0 1.0 0.0
0 6 1.0 1.0 0.0
0 7 1.0 1.0 0.0
0 8 1.0 1.0 0.0
0 9 1.0 1.0 0.0
0 10 1.0 1.0 0.0
0 11 1.0 1.0 0.0
0 12 1.0 1.0 0.0
0 13 1.0 1.0 0.0
0 14 1.0 1.0 0.0
0 15 1.0 1.0 0.0
0 16 1.0 1.0 0.0
0 17 1.0 1.0 0.0
0 18 1.0 1.0 0.0
0 19 1.0 1.0 0.0
1 0 1.0 1.0 0.0
1 1 1.0 1.0 0.0
1 2 1.0 1.0 0.0
1 3 1.0 1.0 0.0
1 4 1.0 1.0 0.0
1 5 1.0 1.0 0.0
1 6 1.0 1.0 0.0
1 7 1.0 1.0 0.0
1 8 1.54 1.0 0.0326
1 9 1.54 1.0 0.0326
1 10 1.54 1.0 0.0326
1 11 1.54 1.0 0.0326
1 12 1.54 1.0 0.0326
1 13 1.0 1.0 0.0
1 14 1.0 1.0 0.0
1 15 1.0 1.0 0.0
1 16 1.0 1.0 0.0
1 17 1.0 1.0 0.0
1 18 1.0 1.0 0.0
1 19 1.0 1.0 0.0
2 0 1.0 1.0 0.0
2 1 1.0 1.0 0.0
2 2 1.0 1.0 0.0
2 3 1.0 1.0 0.0
2 4 1.0 1.0 0.0
2 5 1.0 1.0 0.0
2 6 1.0 1.0 0.0
2 7 1.0 1.0 0.0
2 8 1.0 1.0 0.0
2 9 1.54 1.0 0.0326
2 10 1.54 1.0 0.0326
2 11 1.54 1.0 0.0326
2 12 1.0 1.0 0.0
2 13 1.0 1.0 0.0
2 14 1.0 1.0 0.0
2 15 1.0 1.0 0.0
2 16 1.0 1.0 0.0
2 17 1.0 1.0 0.0
2 18 1.0 1.0 0.0
2 19 1.0 1.0 0.0
3 0 1.0 1.0 0.0
3 1 1.0 1.0 0.0
3 2 1.0 1.0 0.0
3 3 1.0 1.0 0.0
3 4 1.0 1.0 0.0
3 5 1.0 1.0 0.0
3 6 1.0 1.0 0.0
3 7 1.0 1.0 0.0
3 8 1.0 1.0 0.0
3 9 1.0 1.0 0.0
3 10 1.54 1.0 0.0326
3 11 1.0 1.0 0.0
3 12 1.0 1.0 0.0
3 13 1.0 1.0 0.0
3 14 1.0 1.0 0.0
3 15 2.24 1.0 0.021
3 16 1.0 1.0 0.0
3 17 1.0 1.0 0.0
3 18 1.0 1.0 0.0
3 19 1.0 1.0 0.0
4 0 1.0 1.0 0.0
4 1 1.0 1.0 0.0
4 2 1.0 1.0 0.0
4 3 1.0 1.0 0.0
4 4 1.0 1.0 0.0
4 5 1.0 1.0 0.0
4 6 1.0 1.0 0.0
4 7 1.0 1.0 0.0
4 8 1.0 1.0 0.0
4 9 1.0 1.0 0.0
4 10 1.54 1.0 0.0326
4 11 1.0 1.0 0.0
4 12 1.0 1.0 0.0
4 13 1.0 1.0 0.0
4 14 2.24 1.0 0.021
4 15 2.24 1.0 0.021
4 16 2.24 1.0 0.021
4 17 1.0 1.0 0.0
4 18 1.0 1.0 0.0
4 19 1.0 1.0 0.0
5 0 1.0 1.0 0.0
5 1 1.0 1.0 0.0
5 2 1.0 1.0 0.0
5 3 1.0 1.0 0.0
5 4 1.0 1.0 0.0
5 5 1.0 1.0 0.0
5 6 1.0 1.0 0.0
5 7 1.0 1.0 0.0
5 8 2.42 1.0 0.0099
5 9 1.0 1.0 0.0
5 10 1.0 1.0 0.0
5 11 1.0 1.0 0.0
5 12 1.0 1.0 0.0
5 13 2.24 1.0 0.021
5 14 2.24 1.0 0.021
5 15 2.24 1.0 0.021
5 16 2.24 1.0 0.021
5 17 2.24 1.0 0.021
5 18 1.0 1.0 0.0
5 19 1.0 1.0 0.0
6 0 1.0 1.0 0.0
6 1 1.0 1.0 0.0
6 2 2.14 1.0 0.034
6 3 1.0 1.0 0.0
6 4 1.0 1.0 0.0
6 5 1.0 1.0 0.0
6 6 1.0 1.0 0.0
6 7 2.42 1.0 0.0099
6 8 2.42 1.0 0.0099
6 9 2.42 1.0 0.0099
6 10 1.0 1.0 0.0
6 11 1.0 1.0 0.0
6 12 1.0 1.0 0.0
6 13 1.0 1.0 0.0
6 14 2.24 1.0 0.021
6 15 2.24 1.0 0.021
6 16 2.24 1.0 0.021
6 17 1.0 1.0 0.0
6 18 1.0 1.0 0.0
6 19 1.0 1.0 0.0
7 0 1.0 1.0 0.0
7 1 2.14 1.0 0.034
7 2 2.14 1.0 0.034
7 3 2.14 1.0 0.034
7 4 1.0 1.0 0.0
7 5 1.0 1.0 0.0
7 6 2.42 1.0 0.0099
7 7 2.42 1.0 0.0099
7 8 2.42 1.0 0.0099
7 9 2.42 1.0 0.0099
7 10 2.42 1.0 0.0099
7 11 1.0 1.0 0.0
7 12 1.0 1.0 0.0
7 13 1.0 1.0 0.0
7 14 1.0 1.0 0.0
7 15 2.24 1.0 0.021
7 16 1.0 1.0 0.0
7 17 1.0 1.0 0.0
7 18 1.0 1.0 0.0
7 19 1.0 1.0 0.0
8 0 2.14 1.0 0.034
8 1 2.14 1.0 0.034
8 2 2.14 1.0 0.034
8 3 2.14 1.0 0.034
8 4 2.14 1.0 0.034
8 5 1.0 1.0 0.0
8 6 1.0 1.0 0.0
8 7 2.42 1.0 0.0099
8 8 2.42 1.0 0.0099
8 9 2.42 1.0 0.0099
8 10 1.0 1.0 0.0
8 11 1.0 1.0 0.0
8 12 1.0 1.0 0.0
8 13 1.0 1.0 0.0
8 14 1.0 1.0 0.0
8 15 1.69 1.0 0.023
8 16 1.0 1.0 0.0
8 17 1.0 1.0 0.0
8 18 1.0 1.0 0.0
8 19 1.0 1.0 0.0
9 0 1.0 1.0 0.0
9 1 2.14 1.0 0.034
9 2 2.14 1.0 0.034
9 3 2.14 1.0 0.034
9 4 1.0 1.0 0.0
9 5 1.0 1.0 0.0
9 6 1.0 1.0 0.0
9 7 1.0 1.0 0.0
9 8 2.42 1.0 0.0099
9 9 1.0 1.0 0.0
9 10 1.0 1.0 0.0
9 11 1.0 1.0 0.0
9 12 1.0 1.0 0.0
9 13 1.0 1.0 0.0
9 14 1.0 1.0 0.0
9 15 1.0 1.0 0.0
9 16 1.69 1.0 0.023
9 17 1.69 1.0 0.023
9 18 1.0 1.0 0.0
9 19 1.0 1.0 0.0
10 0 1.0 1.0 0.0
10 1 1.0 1.0 0.0
10 2 2.14 1.0 0.034
10 3 1.0 1.0 0.0
10 4 1.0 1.0 0.0
10 5 1.0 1.0 0.0
10 6 1.0 1.0 0.0
10 7 1.0 1.0 0.0
10 8 1.0 1.0 0.0
10 9 1.0 1.0 0.0
10 10 1.0 1.0 0.0
10 11 1.0 1.0 0.0
10 12 1.0 1.0 0.0
10 13 1.0 1.0 0.0
10 14 1.0 1.0 0.0
10 15 1.0 1.0 0.0
10 16 1.69 1.0 0.023
10 17 1.69 1.0 0.023
10 18 1.69 1.0 0.023
10 19 1.69 1.0 0.023
11 0 1.0 1.0 0.0
11 1 1.0 1.0 0.0
11 2 1.0 1.0 0.0
11 3 1.0 1.0 0.0
11 4 1.0 1.0 0.0
11 5 1.0 1.0 0.0
11 6 1.0 1.0 0.0
11 7 1.0 1.0 0.0
11 8 2.34 1.0 0.0318
11 9 1.0 1.0 0.0
11 10 1.0 1.0 0.0
11 11 1.0 1.0 0.0
11 12 1.0 1.0 0.0
11 13 1.0 1.0 0.0
11 14 1.0 1.0 0.0
11 15 1.0 1.0 0.0
11 16 1.69 1.0 0.023
11 17 1.69 1.0 0.023
11 18 1.69 1.0 0.023
11 19 1.0 1.0 0.0
12 0 1.0 1.0 0.0
12 1 1.0 1.0 0.0
12 2 1.0 1.0 0.0
12 3 1.0 1.0 0.0
12 4 1.0 1.0 0.0
12 5 1.0 1.0 0.0
12 6 1.0 1.0 0.0
12 7 2.34 1.0 0.0318
12 8 2.34 1.0 0.0318
12 9 2.34 1.0 0.0318
12 10 1.0 1.0 0.0
12 11 1.0 1.0 0.0
12 12 1.0 1.0 0.0
12 13 1.0 1.0 0.0
12 14 1.0 1.0 0.0
12 15 1.0 1.0 0.0
12 16 1.69 1.0 0.023
12 17 1.69 1.0 0.023
12 18 1.0 1.0 0.0
12 19 1.0 1.0 0.0
13 0 1.0 1.0 0.0
13 1 1.0 1.0 0.0
13 2 1.0 1.0 0.0
13 3 1.0 1.0 0.0
13 4 1.0 1.0 0.0
13 5 1.0 1.0 0.0
13 6 2.34 1.0 0.0318
13 7 2.34 1.0 0.0318
13 8 2.34 1.0 0.0318
13 9 2.34 1.0 0.0318
13 10 2.34 1.0 0.0318
13 11 1.0 1.0 0.0
13 12 1.0 1.0 0.0
13 13 1.0 1.0 0.0
13 14 1.0 1.0 0.0
13 15 1.0 1.0 0.0
13 16 1.69 1.0 0.023
13 17 1.0 1.0 0.0
13 18 1.0 1.0 0.0
13 19 1.0 1.0 0.0
14 0 1.0 1.0 0.0
14 1 1.0 1.0 0.0
14 2 1.0 1.0 0.0
14 3 1.0 1.0 0.0
14 4 1.0 1.0 0.0
14 5 1.0 1.0 0.0
14 6 1.0 1.0 0.0
14 7 2.34 1.0 0.0318
14 8 2.34 1.0 0.0318
14 9 2.34 1.0 0.0318
14 10 1.0 1.0 0.0
14 11 1.0 1.0 0.0
14 12 1.0 1.0 0.0
14 13 1.0 1.0 0.0
14 14 1.0 1.0 0.0
14 15 1.0 1.0 0.0
14 16 1.0 1.0 0.0
14 17 1.0 1.0 0.0
14 18 1.0 1.0 0.0
14 19 1.0 1.0 0.0
15 0 1.0 1.0 0.0
15 1 1.0 1.0 0.0
15 2 1.0 1.0 0.0
15 3 1.0 1.0 0.0
15 4 1.0 1.0 0.0
15 5 1.0 1.0 0.0
15 6 2.04 1.0 0.0241
15 7 1.0 1.0 0.0
15 8 2.34 1.0 0.0318
15 9 2.23 1.0 0.0425
15 10 2.23 1.0 0.0425
15 11 2.23 1.0 0.0425
15 12 2.23 1.0 0.0425
15 13 1.0 1.0 0.0
15 14 1.0 1.0 0.0
15 15 1.0 1.0 0.0
15 16 1.0 1.0 0.0
15 17 1.0 1.0 0.0
15 18 1.0 1.0 0.0
15 19 1.0 1.0 0.0
16 0 1.0 1.0 0.0
16 1 1.0 1.0 0.0
16 2 1.0 1.0 0.0
16 3 1.0 1.0 0.0
16 4 1.0 1.0 0.0
16 5 2.04 1.0 0.0241
16 6 2.04 1.0 0.0241
16 7 2.04 1.0 0.0241
16 8 1.0 1.0 0.0
16 9 2.23 1.0 0.0425
16 10 2.23 1.0 0.0425
16 11 2.23 1.0 0.0425
16 12 2.23 1.0 0.0425
16 13 1.0 1.0 0.0
16 14 1.0 1.0 0.0
16 15 1.0 1.0 0.0
16 16 1.0 1.0 0.0
16 17 1.0 1.0 0.0
16 18 1.0 1.0 0.0
16 19 1.0 1.0 0.0
17 0 1.0 1.0 0.0
17 1 1.0 1.0 0.0
17 2 1.0 1.0 0.0
17 3 1.0 1.0 0.0
17 4 2.04 1.0 0.0241
17 5 2.04 1.0 0.0241
17 6 2.04 1.0 0.0241
17 7 2.04 1.0 0.0241
17 8 2.04 1.0 0.0241
17 9 2.23 1.0 0.0425
17 10 2.23 1.0 0.0425
17 11 2.23 1.0 0.0425
17 12 2.23 1.0 0.0425
17 13 1.0 1.0 0.0
17 14 1.0 1.0 0.0
17 15 1.0 1.0 0.0
17 16 1.0 1.0 0.0
17 17 1.0 1.0 0.0
17 18 1.0 1.0 0.0
17 19 1.0 1.0 0.0
18 0 1.0 1.0 0.0
18 1 1.0 1.0 0.0
18 2 1.0 1.0 0.0
18 3 1.0 1.0 0.0
18 4 1.0 1.0 0.0
18 5 2.04 1.0 0.0241
18 6 2.04 1.0 0.0241
18 7 2.04 1.0 0.0241
18 8 1.0 1.0 0.0
18 9 2.23 1.0 0.0425
18 10 2.23 1.0 0.0425
18 11 2.23 1.0 0.0425
18 12 2.23 1.0 0.0425
18 13 1.0 1.0 0.0
18 14 1.0 1.0 0.0
18 15 1.0 1.0 0.0
18 16 1.0 1.0 0.0
18 17 1.0 1.0 0.0
18 18 1.0 1.0 0.0
18 19 1.0 1.0 0.0
19 0 1.0 1.0 0.0
19 1 1.0 1.0 0.0
19 2 1.0 1.0 0.0
19 3 1.0 1.0 0.0
19 4 1.0 1.0 0.0
19 5 1.0 1.0 0.0
19 6 2.04 1.0 0.0241
19 7 1.0 1.0 0.0
19 8 1.0 1.0 0.0
19 9 1.0 1.0 0.0
19 10 1.0 1.0 0.0
19 11 1.0 1.0 0.0
19 12 1.0 1.0 0.0
19 13 1.0 1.0 0.0
19 14 1.0 1.0 0.0
19 15 1.0 1.0 0.0
19 16 1.0 1.0 0.0
19 17 1.0 1.0 0.0
19 18 1.0 1.0 0.0
19 19 1.0 1.0 0.0
