# z x epsr mur sigma
0 0 1.0 1.0 0.0
0 1 1.0 1.0 0.0
0 2 1.0 1.0 0.0
0 3 1.0 1.0 0.0
0 4 1.0 1.0 0.0
0 5 1.0 1.0 0.0
0 6 1.0 1.0 0.0
0 7 1.0 1.0 0.0
0 8 1.0 1.0 0.0
0 9 1.0 1.0 0.0
0 10 1.0 1.0 0.0
0 11 1.0 1.0 0.0
0 12 1.0 1.0 0.0
0 13 1.0 1.0 0.0
0 14 1.0 1.0 0.0
0 15 1.0 1.0 0.0
0 16 1.0 1.0 0.0
0 17 1.0 1.0 0.0
0 18 1.0 1.0 0.0
0 19 1.0 1.0 0.0
1 0 2.48 1.0 0.0032
1 1 2.48 1.0 0.0032
1 2 1.0 1.0 0.0
1 3 1.0 1.0 0.0
1 4 1.0 1.0 0.0
1 5 1.0 1.0 0.0
1 6 1.0 1.0 0.0
1 7 1.43 1.0 0.0453
1 8 1.0 1.0 0.0
1 9 1.0 1.0 0.0
1 10 1.0 1.0 0.0
1 11 1.0 1.0 0.0
1 12 1.0 1.0 0.0
1 13 1.0 1.0 0.0
1 14 1.0 1.0 0.0
1 15 1.0 1.0 0.0
1 16 2.29 1.0 0.0227
1 17 1.0 1.0 0.0
1 18 1.0 1.0 0.0
1 19 1.0 1.0 0.0
2 0 2.48 1.0 0.0032
2 1 2.48 1.0 0.0032
2 2 1.0 1.0 0.0
2 3 1.0 1.0 0.0
2 4 1.0 1.0 0.0
2 5 1.0 1.0 0.0
2 6 1.43 1.0 0.0453
2 7 1.43 1.0 0.0453
2 8 1.43 1.0 0.0453
2 9 1.0 1.0 0.0
2 10 1.0 1.0 0.0
2 11 1.0 1.0 0.0
2 12 1.0 1.0 0.0
2 13 1.0 1.0 0.0
2 14 1.0 1.0 0.0
2 15 2.29 1.0 0.0227
2 16 1.0 1.0 0.0
2 17 1.0 1.0 0.0
2 18 1.0 1.0 0.0
2 19 1.0 1.0 0.0
3 0 2.48 1.0 0.0032
3 1 2.48 1.0 0.0032
3 2 1.0 1.0 0.0
3 3 1.0 1.0 0.0
3 4 1.0 1.0 0.0
3 5 1.43 1.0 0.0453
3 6 1.43 1.0 0.0453
3 7 1.43 1.0 0.0453
3 8 1.43 1.0 0.0453
3 9 1.43 1.0 0.0453
3 10 1.0 1.0 0.0
3 11 1.0 1.0 0.0
3 12 1.0 1.0 0.0
3 13 2.29 1.0 0.0227
3 14 2.29 1.0 0.0227
3 15 2.29 1.0 0.0227
3 16 1.0 1.0 0.0
3 17 1.0 1.0 0.0
3 18 1.0 1.0 0.0
3 19 1.0 1.0 0.0
4 0 1.0 1.0 0.0
4 1 1.0 1.0 0.0
4 2 1.0 1.0 0.0
4 3 1.0 1.0 0.0
4 4 1.0 1.0 0.0
4 5 1.0 1.0 0.0
4 6 1.43 1.0 0.0453
4 7 1.43 1.0 0.0453
4 8 1.43 1.0 0.0453
4 9 1.0 1.0 0.0
4 10 1.0 1.0 0.0
4 11 2.29 1.0 0.0227
4 12 2.29 1.0 0.0227
4 13 2.29 1.0 0.0227
4 14 2.29 1.0 0.0227
4 15 2.29 1.0 0.0227
4 16 1.0 1.0 0.0
4 17 1.0 1.0 0.0
4 18 1.0 1.0 0.0
4 19 1.0 1.0 0.0
5 0 1.0 1.0 0.0
5 1 1.0 1.0 0.0
5 2 1.0 1.0 0.0
5 3 1.0 1.0 0.0
5 4 1.0 1.0 0.0
5 5 1.0 1.0 0.0
5 6 1.0 1.0 0.0
5 7 1.43 1.0 0.0453
5 8 1.0 1.0 0.0
5 9 1.0 1.0 0.0
5 10 1.0 1.0 0.0
5 11 1.0 1.0 0.0
5 12 1.0 1.0 0.0
5 13 2.29 1.0 0.0227
5 14 2.29 1.0 0.0227
5 15 2.29 1.0 0.0227
5 16 1.0 1.0 0.0
5 17 1.0 1.0 0.0
5 18 1.0 1.0 0.0
5 19 1.0 1.0 0.0
6 0 1.0 1.0 0.0
6 1 1.0 1.0 0.0
6 2 1.0 1.0 0.0
6 3 1.0 1.0 0.0
6 4 1.0 1.0 0.0
6 5 1.0 1.0 0.0
6 6 1.0 1.0 0.0
6 7 1.0 1.0 0.0
6 8 1.0 1.0 0.0
6 9 1.0 1.0 0.0
6 10 1.0 1.0 0.0
6 11 1.0 1.0 0.0
6 12 1.0 1.0 0.0
6 13 1.0 1.0 0.0
6 14 2.29 1.0 0.0227
6 15 2.29 1.0 0.0227
6 16 1.0 1.0 0.0
6 17 1.0 1.0 0.0
6 18 1.0 1.0 0.0
6 19 1.0 1.0 0.0
7 0 1.0 1.0 0.0
7 1 1.0 1.0 0.0
7 2 1.0 1.0 0.0
7 3 1.0 1.0 0.0
7 4 1.0 1.0 0.0
7 5 1.0 1.0 0.0
7 6 1.0 1.0 0.0
7 7 1.0 1.0 0.0
7 8 1.0 1.0 0.0
7 9 1.0 1.0 0.0
7 10 1.0 1.0 0.0
7 11 1.0 1.0 0.0
7 12 1.07 1.0 0.0328
7 13 1.0 1.0 0.0
7 14 1.0 1.0 0.0
7 15 2.29 1.0 0.0227
7 16 1.0 1.0 0.0
7 17 1.0 1.0 0.0
7 18 1.0 1.0 0.0
7 19 1.0 1.0 0.0
8 0 1.0 1.0 0.0
8 1 1.0 1.0 0.0
8 2 1.0 1.0 0.0
8 3 1.0 1.0 0.0
8 4 1.0 1.0 0.0
8 5 1.0 1.0 0.0
8 6 1.0 1.0 0.0
8 7 1.0 1.0 0.0
8 8 1.0 1.0 0.0
8 9 1.0 1.0 0.0
8 10 1.07 1.0 0.0328
8 11 1.07 1.0 0.0328
8 12 1.07 1.0 0.0328
8 13 1.0 1.0 0.0
8 14 1.0 1.0 0.0
8 15 1.0 1.0 0.0
8 16 1.0 1.0 0.0
8 17 1.0 1.0 0.0
8 18 1.0 1.0 0.0
8 19 1.0 1.0 0.0
9 0 1.0 1.0 0.0
9 1 1.0 1.0 0.0
9 2 1.0 1.0 0.0
9 3 1.0 1.0 0.0
9 4 1.0 1.0 0.0
9 5 1.0 1.0 0.0
9 6 1.0 1.0 0.0
9 7 1.0 1.0 0.0
9 8 1.07 1.0 0.0328
9 9 1.07 1.0 0.0328
9 10 1.07 1.0 0.0328
9 11 1.07 1.0 0.0328
9 12 1.07 1.0 0.0328
9 13 1.0 1.0 0.0
9 14 1.0 1.0 0.0
9 15 1.0 1.0 0.0
9 16 1.0 1.0 0.0
9 17 1.0 1.0 0.0
9 18 1.0 1.0 0.0
9 19 1.0 1.0 0.0
10 0 1.0 1.0 0.0
10 1 1.0 1.0 0.0
10 2 1.0 1.0 0.0
10 3 1.0 1.0 0.0
10 4 1.0 1.0 0.0
10 5 1.0 1.0 0.0
10 6 1.07 1.0 0.0328
10 7 1.07 1.0 0.0328
10 8 1.07 1.0 0.0328
10 9 1.07 1.0 0.0328
10 10 1.07 1.0 0.0328
10 11 1.07 1.0 0.0328
10 12 1.07 1.0 0.0328
10 13 1.0 1.0 0.0
10 14 1.0 1.0 0.0
10 15 1.0 1.0 0.0
10 16 1.0 1.0 0.0
10 17 1.0 1.0 0.0
10 18 1.0 1.0 0.0
10 19 1.0 1.0 0.0
11 0 1.0 1.0 0.0
11 1 1.0 1.0 0.0
11 2 1.0 1.0 0.0
11 3 1.0 1.0 0.0
11 4 1.0 1.0 0.0
11 5 1.0 1.0 0.0
11 6 1.0 1.0 0.0
11 7 1.0 1.0 0.0
11 8 1.07 1.0 0.0328
11 9 1.07 1.0 0.0328
11 10 1.07 1.0 0.0328
11 11 1.07 1.0 0.0328
11 12 1.07 1.0 0.0328
11 13 1.0 1.0 0.0
11 14 1.0 1.0 0.0
11 15 1.0 1.0 0.0
11 16 1.0 1.0 0.0
11 17 1.0 1.0 0.0
11 18 1.0 1.0 0.0
11 19 1.0 1.0 0.0
12 0 1.0 1.0 0.0
12 1 1.0 1.0 0.0
12 2 1.0 1.0 0.0
12 3 1.9 1.0 0.0405
12 4 1.0 1.0 0.0
12 5 1.0 1.0 0.0
12 6 1.0 1.0 0.0
12 7 1.0 1.0 0.0
12 8 1.0 1.0 0.0
12 9 1.0 1.0 0.0
12 10 1.07 1.0 0.0328
12 11 1.07 1.0 0.0328
12 12 1.07 1.0 0.0328
12 13 1.0 1.0 0.0
12 14 1.0 1.0 0.0
12 15 1.0 1.0 0.0
12 16 1.0 1.0 0.0
12 17 1.0 1.0 0.0
12 18 1.0 1.0 0.0
12 19 1.0 1.0 0.0
13 0 1.0 1.0 0.0
13 1 1.0 1.0 0.0
13 2 1.9 1.0 0.0405
13 3 1.9 1.0 0.0405
13 4 1.9 1.0 0.0405
13 5 1.0 1.0 0.0
13 6 1.0 1.0 0.0
13 7 1.0 1.0 0.0
13 8 1.0 1.0 0.0
13 9 1.0 1.0 0.0
13 10 1.0 1.0 0.0
13 11 1.0 1.0 0.0
13 12 1.07 1.0 0.0328
13 13 1.0 1.0 0.0
13 14 1.03 1.0 0.023
13 15 1.0 1.0 0.0
13 16 1.0 1.0 0.0
13 17 1.0 1.0 0.0
13 18 1.0 1.0 0.0
13 19 1.0 1.0 0.0
14 0 1.0 1.0 0.0
14 1 1.9 1.0 0.0405
14 2 1.9 1.0 0.0405
14 3 1.9 1.0 0.0405
14 4 1.9 1.0 0.0405
14 5 1.9 1.0 0.0405
14 6 1.0 1.0 0.0
14 7 1.0 1.0 0.0
14 8 1.0 1.0 0.0
14 9 1.0 1.0 0.0
14 10 1.0 1.0 0.0
14 11 1.0 1.0 0.0
14 12 1.0 1.0 0.0
14 13 1.03 1.0 0.023
14 14 1.03 1.0 0.023
14 15 1.03 1.0 0.023
14 16 1.0 1.0 0.0
14 17 1.0 1.0 0.0
14 18 1.0 1.0 0.0
14 19 1.0 1.0 0.0
15 0 1.0 1.0 0.0
15 1 1.0 1.0 0.0
15 2 1.9 1.0 0.0405
15 3 1.9 1.0 0.0405
15 4 1.9 1.0 0.0405
15 5 1.0 1.0 0.0
15 6 1.0 1.0 0.0
15 7 1.0 1.0 0.0
15 8 1.0 1.0 0.0
15 9 1.0 1.0 0.0
15 10 1.0 1.0 0.0
15 11 1.0 1.0 0.0
15 12 1.03 1.0 0.023
15 13 1.03 1.0 0.023
15 14 1.03 1.0 0.023
15 15 1.03 1.0 0.023
15 16 1.03 1.0 0.023
15 17 1.84 1.0 0.0142
15 18 1.84 1.0 0.0142
15 19 1.84 1.0 0.0142
16 0 1.0 1.0 0.0
16 1 1.0 1.0 0.0
16 2 1.0 1.0 0.0
16 3 1.9 1.0 0.0405
16 4 1.0 1.0 0.0
16 5 1.0 1.0 0.0
16 6 1.0 1.0 0.0
16 7 1.0 1.0 0.0
16 8 1.0 1.0 0.0
16 9 1.0 1.0 0.0
16 10 1.0 1.0 0.0
16 11 1.0 1.0 0.0
16 12 1.0 1.0 0.0
16 13 1.03 1.0 0.023
16 14 1.03 1.0 0.023
16 15 1.03 1.0 0.023
16 16 1.0 1.0 0.0
16 17 1.84 1.0 0.0142
16 18 1.84 1.0 0.0142
16 19 1.84 1.0 0.0142
17 0 1.0 1.0 0.0
17 1 1.0 1.0 0.0
17 2 1.0 1.0 0.0
17 3 1.0 1.0 0.0
17 4 1.0 1.0 0.0
17 5 1.0 1.0 0.0
17 6 1.0 1.0 0.0
17 7 1.0 1.0 0.0
17 8 1.0 1.0 0.0
17 9 2.06 1.0 0.0286
17 10 2.06 1.0 0.0286
17 11 2.06 1.0 0.0286
17 12 2.06 1.0 0.0286
17 13 1.0 1.0 0.0
17 14 1.03 1.0 0.023
17 15 1.0 1.0 0.0
17 16 1.0 1.0 0.0
17 17 1.84 1.0 0.0142
17 18 1.84 1.0 0.0142
17 19 1.84 1.0 0.0142
18 0 1.0 1.0 0.0
18 1 1.0 1.0 0.0
18 2 1.0 1.0 0.0
18 3 1.0 1.0 0.0
18 4 1.0 1.0 0.0
18 5 1.0 1.0 0.0
18 6 1.0 1.0 0.0
18 7 1.0 1.0 0.0
18 8 1.0 1.0 0.0
18 9 1.0 1.0 0.0
18 10 2.06 1.0 0.0286
18 11 2.06 1.0 0.0286
18 12 1.0 1.0 0.0
18 13 1.0 1.0 0.0
18 14 1.0 1.0 0.0
18 15 1.0 1.0 0.0
18 16 1.0 1.0 0.0
18 17 1.0 1.0 0.0
18 18 1.0 1.0 0.0
18 19 1.0 1.0 0.0
19 0 1.0 1.0 0.0
19 1 1.0 1.0 0.0
19 2 1.0 1.0 0.0
19 3 1.0 1.0 0.0
19 4 1.0 1.0 0.0
19 5 1.0 1.0 0.0
19 6 1.0 1.0 0.0
19 7 1.0 1.0 0.0
19 8 1.0 1.0 0.0
19 9 1.0 1.0 0.0
19 10 1.0 1.0 0.0
19 11 2.06 1.0 0.0286
19 12 1.0 1.0 0.0
19 13 1.0 1.0 0.0
19 14 1.0 1.0 0.0
19 15 1.0 1.0 0.0
19 16 1.0 1.0 0.0
19 17 1.0 1.0 0.0
19 18 1.0 1.0 0.0
19 19 1.0 1.0 0.0
