# z x epsr mur sigma
0 0 1.0 1.0 0.0
0 1 1.0 1.0 0.0
0 2 1.0 1.0 0.0
0 3 1.0 1.0 0.0
0 4 1.0 1.0 0.0
0 5 1.0 1.0 0.0
0 6 1.0 1.0 0.0
0 7 1.0 1.0 0.0
0 8 1.0 1.0 0.0
0 9 1.0 1.0 0.0
0 10 1.0 1.0 0.0
0 11 1.0 1.0 0.0
0 12 1.0 1.0 0.0
0 13 1.0 1.0 0.0
0 14 1.0 1.0 0.0
0 15 1.0 1.0 0.0
0 16 1.0 1.0 0.0
0 17 1.0 1.0 0.0
0 18 1.0 1.0 0.0
0 19 1.0 1.0 0.0
1 0 1.0 1.0 0.0
1 1 1.0 1.0 0.0
1 2 1.0 1.0 0.0
1 3 1.0 1.0 0.0
1 4 1.27 1.0 0.0449
1 5 1.27 1.0 0.0449
1 6 1.27 1.0 0.0449
1 7 1.0 1.0 0.0
1 8 1.0 1.0 0.0
1 9 1.0 1.0 0.0
1 10 1.0 1.0 0.0
1 11 1.0 1.0 0.0
1 12 1.0 1.0 0.0
1 13 1.0 1.0 0.0
1 14 1.0 1.0 0.0
1 15 1.67 1.0 0.02
1 16 1.67 1.0 0.02
1 17 1.0 1.0 0.0
1 18 1.0 1.0 0.0
1 19 1.0 1.0 0.0
2 0 1.0 1.0 0.0
2 1 1.0 1.0 0.0
2 2 1.0 1.0 0.0
2 3 1.0 1.0 0.0
2 4 1.27 1.0 0.0449
2 5 1.27 1.0 0.0449
2 6 1.27 1.0 0.0449
2 7 1.0 1.0 0.0
2 8 1.0 1.0 0.0
2 9 1.0 1.0 0.0
2 10 1.0 1.0 0.0
2 11 1.0 1.0 0.0
2 12 1.0 1.0 0.0
2 13 1.0 1.0 0.0
2 14 1.48 1.0 0.0202
2 15 1.67 1.0 0.02
2 16 1.67 1.0 0.02
2 17 1.0 1.0 0.0
2 18 1.0 1.0 0.0
2 19 1.0 1.0 0.0
3 0 1.0 1.0 0.0
3 1 1.0 1.0 0.0
3 2 1.0 1.0 0.0
3 3 1.0 1.0 0.0
3 4 1.0 1.0 0.0
3 5 1.0 1.0 0.0
3 6 1.0 1.0 0.0
3 7 1.0 1.0 0.0
3 8 1.0 1.0 0.0
3 9 1.0 1.0 0.0
3 10 1.0 1.0 0.0
3 11 1.0 1.0 0.0
3 12 1.0 1.0 0.0
3 13 1.48 1.0 0.0202
3 14 1.48 1.0 0.0202
3 15 1.67 1.0 0.02
3 16 1.67 1.0 0.02
3 17 1.0 1.0 0.0
3 18 1.0 1.0 0.0
3 19 1.0 1.0 0.0
4 0 1.0 1.0 0.0
4 1 1.0 1.0 0.0
4 2 1.0 1.0 0.0
4 3 1.0 1.0 0.0
4 4 1.0 1.0 0.0
4 5 1.0 1.0 0.0
4 6 1.0 1.0 0.0
4 7 1.0 1.0 0.0
4 8 1.0 1.0 0.0
4 9 1.0 1.0 0.0
4 10 1.0 1.0 0.0
4 11 1.0 1.0 0.0
4 12 1.48 1.0 0.0202
4 13 1.48 1.0 0.0202
4 14 1.48 1.0 0.0202
4 15 1.67 1.0 0.02
4 16 1.67 1.0 0.02
4 17 1.0 1.0 0.0
4 18 1.0 1.0 0.0
4 19 1.0 1.0 0.0
5 0 1.0 1.0 0.0
5 1 1.0 1.0 0.0
5 2 1.0 1.0 0.0
5 3 1.86 1.0 0.0485
5 4 1.0 1.0 0.0
5 5 1.0 1.0 0.0
5 6 1.0 1.0 0.0
5 7 1.0 1.0 0.0
5 8 1.0 1.0 0.0
5 9 1.0 1.0 0.0
5 10 1.0 1.0 0.0
5 11 1.48 1.0 0.0202
5 12 1.48 1.0 0.0202
5 13 1.48 1.0 0.0202
5 14 1.48 1.0 0.0202
5 15 1.0 1.0 0.0
5 16 1.0 1.0 0.0
5 17 1.0 1.0 0.0
5 18 1.0 1.0 0.0
5 19 1.0 1.0 0.0
6 0 1.0 1.0 0.0
6 1 1.0 1.0 0.0
6 2 1.0 1.0 0.0
6 3 1.86 1.0 0.0485
6 4 1.86 1.0 0.0485
6 5 1.86 1.0 0.0485
6 6 1.0 1.0 0.0
6 7 1.0 1.0 0.0
6 8 1.0 1.0 0.0
6 9 1.0 1.0 0.0
6 10 1.48 1.0 0.0202
6 11 1.48 1.0 0.0202
6 12 1.48 1.0 0.0202
6 13 1.48 1.0 0.0202
6 14 1.48 1.0 0.0202
6 15 1.0 1.0 0.0
6 16 1.0 1.0 0.0
6 17 1.0 1.0 0.0
6 18 1.0 1.0 0.0
6 19 1.0 1.0 0.0
7 0 1.0 1.0 0.0
7 1 1.0 1.0 0.0
7 2 1.0 1.0 0.0
7 3 1.86 1.0 0.0485
7 4 1.86 1.0 0.0485
7 5 1.86 1.0 0.0485
7 6 1.86 1.0 0.0485
7 7 1.86 1.0 0.0485
7 8 1.0 1.0 0.0
7 9 1.0 1.0 0.0
7 10 1.0 1.0 0.0
7 11 1.0 1.0 0.0
7 12 1.0 1.0 0.0
7 13 1.0 1.0 0.0
7 14 1.0 1.0 0.0
7 15 1.48 1.0 0.0202
7 16 1.0 1.0 0.0
7 17 1.0 1.0 0.0
7 18 1.0 1.0 0.0
7 19 1.0 1.0 0.0
8 0 1.0 1.0 0.0
8 1 1.0 1.0 0.0
8 2 1.0 1.0 0.0
8 3 1.86 1.0 0.0485
8 4 1.86 1.0 0.0485
8 5 1.86 1.0 0.0485
8 6 1.86 1.0 0.0485
8 7 1.86 1.0 0.0485
8 8 1.86 1.0 0.0485
8 9 1.86 1.0 0.0485
8 10 1.0 1.0 0.0
8 11 1.0 1.0 0.0
8 12 1.0 1.0 0.0
8 13 1.0 1.0 0.0
8 14 1.0 1.0 0.0
8 15 1.0 1.0 0.0
8 16 1.12 1.0 0.0072
8 17 1.0 1.0 0.0
8 18 1.0 1.0 0.0
8 19 1.0 1.0 0.0
9 0 1.0 1.0 0.0
9 1 1.0 1.0 0.0
9 2 1.0 1.0 0.0
9 3 1.86 1.0 0.0485
9 4 1.86 1.0 0.0485
9 5 1.86 1.0 0.0485
9 6 1.86 1.0 0.0485
9 7 1.86 1.0 0.0485
9 8 1.0 1.0 0.0
9 9 1.0 1.0 0.0
9 10 1.0 1.0 0.0
9 11 1.0 1.0 0.0
9 12 1.0 1.0 0.0
9 13 1.0 1.0 0.0
9 14 1.0 1.0 0.0
9 15 1.12 1.0 0.0072
9 16 1.12 1.0 0.0072
9 17 1.12 1.0 0.0072
9 18 1.0 1.0 0.0
9 19 1.0 1.0 0.0
10 0 1.0 1.0 0.0
10 1 1.0 1.0 0.0
10 2 1.0 1.0 0.0
10 3 1.86 1.0 0.0485
10 4 1.86 1.0 0.0485
10 5 1.86 1.0 0.0485
10 6 1.0 1.0 0.0
10 7 1.0 1.0 0.0
10 8 1.0 1.0 0.0
10 9 1.0 1.0 0.0
10 10 1.0 1.0 0.0
10 11 1.0 1.0 0.0
10 12 1.0 1.0 0.0
10 13 1.0 1.0 0.0
10 14 1.12 1.0 0.0072
10 15 1.12 1.0 0.0072
10 16 1.12 1.0 0.0072
10 17 1.12 1.0 0.0072
10 18 1.12 1.0 0.0072
10 19 1.0 1.0 0.0
11 0 1.0 1.0 0.0
11 1 1.0 1.0 0.0
11 2 1.0 1.0 0.0
11 3 1.86 1.0 0.0485
11 4 1.0 1.0 0.0
11 5 1.0 1.0 0.0
11 6 1.0 1.0 0.0
11 7 1.0 1.0 0.0
11 8 1.0 1.0 0.0
11 9 1.0 1.0 0.0
11 10 1.0 1.0 0.0
11 11 1.0 1.0 0.0
11 12 1.0 1.0 0.0
11 13 1.0 1.0 0.0
11 14 1.0 1.0 0.0
11 15 1.12 1.0 0.0072
11 16 1.12 1.0 0.0072
11 17 1.12 1.0 0.0072
11 18 1.0 1.0 0.0
11 19 1.0 1.0 0.0
12 0 1.0 1.0 0.0
12 1 1.0 1.0 0.0
12 2 1.0 1.0 0.0
12 3 1.0 1.0 0.0
12 4 1.0 1.0 0.0
12 5 1.0 1.0 0.0
12 6 1.0 1.0 0.0
12 7 1.0 1.0 0.0
12 8 1.0 1.0 0.0
12 9 1.0 1.0 0.0
12 10 1.0 1.0 0.0
12 11 1.0 1.0 0.0
12 12 1.0 1.0 0.0
12 13 1.0 1.0 0.0
12 14 1.0 1.0 0.0
12 15 1.84 1.0 0.0238
12 16 1.12 1.0 0.0072
12 17 1.0 1.0 0.0
12 18 1.68 1.0 0.0059
12 19 1.0 1.0 0.0
13 0 1.0 1.0 0.0
13 1 1.0 1.0 0.0
13 2 1.0 1.0 0.0
13 3 1.0 1.0 0.0
13 4 1.9 1.0 0.0029
13 5 1.9 1.0 0.0029
13 6 1.9 1.0 0.0029
13 7 1.9 1.0 0.0029
13 8 1.0 1.0 0.0
13 9 1.0 1.0 0.0
13 10 1.0 1.0 0.0
13 11 1.0 1.0 0.0
13 12 1.84 1.0 0.0238
13 13 1.84 1.0 0.0238
13 14 1.84 1.0 0.0238
13 15 1.0 1.0 0.0
13 16 1.0 1.0 0.0
13 17 1.0 1.0 0.0
13 18 1.68 1.0 0.0059
13 19 1.0 1.0 0.0
14 0 1.0 1.0 0.0
14 1 1.0 1.0 0.0
14 2 1.0 1.0 0.0
14 3 1.0 1.0 0.0
14 4 1.9 1.0 0.0029
14 5 1.9 1.0 0.0029
14 6 1.9 1.0 0.0029
14 7 1.9 1.0 0.0029
14 8 1.84 1.0 0.0238
14 9 1.84 1.0 0.0238
14 10 1.84 1.0 0.0238
14 11 1.84 1.0 0.0238
14 12 1.84 1.0 0.0238
14 13 1.84 1.0 0.0238
14 14 1.84 1.0 0.0238
14 15 1.0 1.0 0.0
14 16 1.0 1.0 0.0
14 17 1.0 1.0 0.0
14 18 1.68 1.0 0.0059
14 19 1.68 1.0 0.0059
15 0 1.0 1.0 0.0
15 1 1.0 1.0 0.0
15 2 1.0 1.0 0.0
15 3 1.0 1.0 0.0
15 4 1.0 1.0 0.0
15 5 1.0 1.0 0.0
15 6 1.0 1.0 0.0
15 7 1.0 1.0 0.0
15 8 1.0 1.0 0.0
15 9 1.84 1.0 0.0238
15 10 1.84 1.0 0.0238
15 11 1.84 1.0 0.0238
15 12 1.84 1.0 0.0238
15 13 1.84 1.0 0.0238
15 14 1.84 1.0 0.0238
15 15 1.0 1.0 0.0
15 16 1.0 1.0 0.0
15 17 1.68 1.0 0.0059
15 18 1.68 1.0 0.0059
15 19 1.68 1.0 0.0059
16 0 1.0 1.0 0.0
16 1 1.0 1.0 0.0
16 2 1.0 1.0 0.0
16 3 1.0 1.0 0.0
16 4 1.0 1.0 0.0
16 5 1.0 1.0 0.0
16 6 1.0 1.0 0.0
16 7 1.0 1.0 0.0
16 8 1.0 1.0 0.0
16 9 1.0 1.0 0.0
16 10 1.84 1.0 0.0238
16 11 1.84 1.0 0.0238
16 12 1.84 1.0 0.0238
16 13 1.84 1.0 0.0238
16 14 1.0 1.0 0.0
16 15 1.0 1.0 0.0
16 16 1.0 1.0 0.0
16 17 1.0 1.0 0.0
16 18 1.0 1.0 0.0
16 19 1.0 1.0 0.0
17 0 1.0 1.0 0.0
17 1 1.0 1.0 0.0
17 2 1.0 1.0 0.0
17 3 1.0 1.0 0.0
17 4 1.0 1.0 0.0
17 5 1.0 1.0 0.0
17 6 1.0 1.0 0.0
17 7 1.0 1.0 0.0
17 8 1.0 1.0 0.0
17 9 1.0 1.0 0.0
17 10 1.0 1.0 0.0
17 11 1.84 1.0 0.0238
17 12 1.84 1.0 0.0238
17 13 1.84 1.0 0.0238
17 14 1.0 1.0 0.0
17 15 1.0 1.0 0.0
17 16 1.0 1.0 0.0
17 17 1.0 1.0 0.0
17 18 1.0 1.0 0.0
17 19 1.0 1.0 0.0
18 0 1.0 1.0 0.0
18 1 1.0 1.0 0.0
18 2 1.0 1.0 0.0
18 3 1.0 1.0 0.0
18 4 1.0 1.0 0.0
18 5 1.0 1.0 0.0
18 6 1.0 1.0 0.0
18 7 1.0 1.0 0.0
18 8 1.0 1.0 0.0
18 9 1.0 1.0 0.0
18 10 1.0 1.0 0.0
18 11 1.0 1.0 0.0
18 12 1.84 1.0 0.0238
18 13 1.84 1.0 0.0238
18 14 1.0 1.0 0.0
18 15 1.0 1.0 0.0
18 16 1.0 1.0 0.0
18 17 1.0 1.0 0.0
18 18 1.0 1.0 0.0
18 19 1.0 1.0 0.0
19 0 1.0 1.0 0.0
19 1 1.0 1.0 0.0
19 2 1.0 1.0 0.0
19 3 1.0 1.0 0.0
19 4 1.0 1.0 0.0
19 5 1.0 1.0 0.0
19 6 1.0 1.0 0.0
19 7 1.0 1.0 0.0
19 8 1.0 1.0 0.0
19 9 1.0 1.0 0.0
19 10 1.0 1.0 0.0
19 11 1.0 1.0 0.0
19 12 1.0 1.0 0.0
19 13 1.84 1.0 0.0238
19 14 1.0 1.0 0.0
19 15 1.0 1.0 0.0
19 16 1.0 1.0 0.0
19 17 1.0 1.0 0.0
19 18 1.0 1.0 0.0
19 19 1.0 1.0 0.0
