# z x epsr mur sigma
0 0 1.0 1.0 0.0
0 1 1.0 1.0 0.0
0 2 1.0 1.0 0.0
0 3 1.0 1.0 0.0
0 4 1.0 1.0 0.0
0 5 1.0 1.0 0.0
0 6 1.0 1.0 0.0
0 7 1.0 1.0 0.0
0 8 1.0 1.0 0.0
0 9 1.0 1.0 0.0
0 10 1.0 1.0 0.0
0 11 1.0 1.0 0.0
0 12 1.0 1.0 0.0
0 13 1.0 1.0 0.0
0 14 1.0 1.0 0.0
0 15 1.0 1.0 0.0
0 16 1.0 1.0 0.0
0 17 1.0 1.0 0.0
0 18 1.0 1.0 0.0
0 19 1.0 1.0 0.0
1 0 1.0 1.0 0.0
1 1 1.0 1.0 0.0
1 2 1.0 1.0 0.0
1 3 1.0 1.0 0.0
1 4 1.0 1.0 0.0
1 5 1.0 1.0 0.0
1 6 1.0 1.0 0.0
1 7 1.0 1.0 0.0
1 8 2.41 1.0 0.0384
1 9 1.0 1.0 0.0
1 10 1.0 1.0 0.0
1 11 1.0 1.0 0.0
1 12 1.0 1.0 0.0
1 13 1.0 1.0 0.0
1 14 1.0 1.0 0.0
1 15 1.0 1.0 0.0
1 16 1.0 1.0 0.0
1 17 1.0 1.0 0.0
1 18 1.0 1.0 0.0
1 19 1.0 1.0 0.0
2 0 1.0 1.0 0.0
2 1 1.0 1.0 0.0
2 2 1.0 1.0 0.0
2 3 1.0 1.0 0.0
2 4 1.0 1.0 0.0
2 5 1.0 1.0 0.0
2 6 1.0 1.0 0.0
2 7 2.41 1.0 0.0384
2 8 2.41 1.0 0.0384
2 9 2.41 1.0 0.0384
2 10 1.0 1.0 0.0
2 11 1.0 1.0 0.0
2 12 1.0 1.0 0.0
2 13 1.0 1.0 0.0
2 14 1.0 1.0 0.0
2 15 1.0 1.0 0.0
2 16 1.0 1.0 0.0
2 17 1.0 1.0 0.0
2 18 1.0 1.0 0.0
2 19 1.0 1.0 0.0
3 0 1.0 1.0 0.0
3 1 1.0 1.0 0.0
3 2 1.0 1.0 0.0
3 3 1.0 1.0 0.0
3 4 1.0 1.0 0.0
3 5 1.0 1.0 0.0
3 6 2.41 1.0 0.0384
3 7 2.41 1.0 0.0384
3 8 2.41 1.0 0.0384
3 9 2.41 1.0 0.0384
3 10 2.41 1.0 0.0384
3 11 1.0 1.0 0.0
3 12 1.0 1.0 0.0
3 13 1.0 1.0 0.0
3 14 1.0 1.0 0.0
3 15 1.0 1.0 0.0
3 16 1.0 1.0 0.0
3 17 1.0 1.0 0.0
3 18 1.0 1.0 0.0
3 19 1.0 1.0 0.0
4 0 1.0 1.0 0.0
4 1 1.0 1.0 0.0
4 2 1.0 1.0 0.0
4 3 1.0 1.0 0.0
4 4 1.0 1.0 0.0
4 5 1.0 1.0 0.0
4 6 1.0 1.0 0.0
4 7 2.41 1.0 0.0384
4 8 2.41 1.0 0.0384
4 9 2.41 1.0 0.0384
4 10 1.0 1.0 0.0
4 11 1.0 1.0 0.0
4 12 1.0 1.0 0.0
4 13 1.35 1.0 0.0278
4 14 1.0 1.0 0.0
4 15 1.0 1.0 0.0
4 16 1.0 1.0 0.0
4 17 1.0 1.0 0.0
4 18 1.0 1.0 0.0
4 19 1.0 1.0 0.0
5 0 1.0 1.0 0.0
5 1 1.0 1.0 0.0
5 2 1.0 1.0 0.0
5 3 1.0 1.0 0.0
5 4 1.0 1.0 0.0
5 5 1.0 1.0 0.0
5 6 1.0 1.0 0.0
5 7 1.0 1.0 0.0
5 8 2.41 1.0 0.0384
5 9 1.0 1.0 0.0
5 10 1.0 1.0 0.0
5 11 1.0 1.0 0.0
5 12 1.35 1.0 0.0278
5 13 1.35 1.0 0.0278
5 14 1.35 1.0 0.0278
5 15 1.0 1.0 0.0
5 16 1.0 1.0 0.0
5 17 1.0 1.0 0.0
5 18 1.0 1.0 0.0
5 19 1.0 1.0 0.0
6 0 1.0 1.0 0.0
6 1 1.0 1.0 0.0
6 2 1.0 1.0 0.0
6 3 1.0 1.0 0.0
6 4 1.0 1.0 0.0
6 5 1.0 1.0 0.0
6 6 1.0 1.0 0.0
6 7 1.0 1.0 0.0
6 8 1.0 1.0 0.0
6 9 1.0 1.0 0.0
6 10 1.0 1.0 0.0
6 11 1.35 1.0 0.0278
6 12 1.35 1.0 0.0278
6 13 1.35 1.0 0.0278
6 14 1.35 1.0 0.0278
6 15 1.35 1.0 0.0278
6 16 1.0 1.0 0.0
6 17 1.0 1.0 0.0
6 18 1.0 1.0 0.0
6 19 1.0 1.0 0.0
7 0 1.0 1.0 0.0
7 1 1.0 1.0 0.0
7 2 1.0 1.0 0.0
7 3 1.0 1.0 0.0
7 4 1.0 1.0 0.0
7 5 1.0 1.0 0.0
7 6 1.0 1.0 0.0
7 7 1.0 1.0 0.0
7 8 1.0 1.0 0.0
7 9 1.0 1.0 0.0
7 10 1.0 1.0 0.0
7 11 1.0 1.0 0.0
7 12 1.35 1.0 0.0278
7 13 1.35 1.0 0.0278
7 14 1.35 1.0 0.0278
7 15 1.0 1.0 0.0
7 16 1.0 1.0 0.0
7 17 1.0 1.0 0.0
7 18 1.0 1.0 0.0
7 19 1.0 1.0 0.0
8 0 1.0 1.0 0.0
8 1 1.0 1.0 0.0
8 2 1.0 1.0 0.0
8 3 1.0 1.0 0.0
8 4 1.0 1.0 0.0
8 5 1.0 1.0 0.0
8 6 1.0 1.0 0.0
8 7 1.0 1.0 0.0
8 8 1.0 1.0 0.0
8 9 1.0 1.0 0.0
8 10 1.0 1.0 0.0
8 11 1.0 1.0 0.0
8 12 1.0 1.0 0.0
8 13 1.35 1.0 0.0278
8 14 1.0 1.0 0.0
8 15 1.0 1.0 0.0
8 16 1.0 1.0 0.0
8 17 1.0 1.0 0.0
8 18 1.0 1.0 0.0
8 19 1.0 1.0 0.0
9 0 1.0 1.0 0.0
9 1 1.0 1.0 0.0
9 2 1.0 1.0 0.0
9 3 1.0 1.0 0.0
9 4 1.0 1.0 0.0
9 5 1.0 1.0 0.0
9 6 1.0 1.0 0.0
9 7 1.0 1.0 0.0
9 8 1.0 1.0 0.0
9 9 1.0 1.0 0.0
9 10 1.0 1.0 0.0
9 11 1.48 1.0 0.0245
9 12 1.0 1.0 0.0
9 13 1.0 1.0 0.0
9 14 1.0 1.0 0.0
9 15 1.0 1.0 0.0
9 16 1.0 1.0 0.0
9 17 1.0 1.0 0.0
9 18 1.0 1.0 0.0
9 19 1.0 1.0 0.0
10 0 1.0 1.0 0.0
10 1 1.0 1.0 0.0
10 2 1.0 1.0 0.0
10 3 1.0 1.0 0.0
10 4 1.0 1.0 0.0
10 5 1.0 1.0 0.0
10 6 1.0 1.0 0.0
10 7 1.0 1.0 0.0
10 8 1.0 1.0 0.0
10 9 1.0 1.0 0.0
10 10 1.48 1.0 0.0245
10 11 1.48 1.0 0.0245
10 12 1.48 1.0 0.0245
10 13 1.0 1.0 0.0
10 14 1.0 1.0 0.0
10 15 1.0 1.0 0.0
10 16 1.0 1.0 0.0
10 17 1.0 1.0 0.0
10 18 1.0 1.0 0.0
10 19 1.0 1.0 0.0
11 0 1.0 1.0 0.0
11 1 1.0 1.0 0.0
11 2 1.0 1.0 0.0
11 3 1.0 1.0 0.0
11 4 1.0 1.0 0.0
11 5 1.0 1.0 0.0
11 6 1.0 1.0 0.0
11 7 1.0 1.0 0.0
11 8 1.0 1.0 0.0
11 9 1.48 1.0 0.0245
11 10 1.48 1.0 0.0245
11 11 1.48 1.0 0.0245
11 12 1.48 1.0 0.0245
11 13 1.48 1.0 0.0245
11 14 2.11 1.0 0.0448
11 15 1.0 1.0 0.0
11 16 1.0 1.0 0.0
11 17 1.0 1.0 0.0
11 18 1.0 1.0 0.0
11 19 1.0 1.0 0.0
12 0 1.0 1.0 0.0
12 1 1.0 1.0 0.0
12 2 1.0 1.0 0.0
12 3 1.0 1.0 0.0
12 4 1.0 1.0 0.0
12 5 1.0 1.0 0.0
12 6 1.0 1.0 0.0
12 7 1.0 1.0 0.0
12 8 1.0 1.0 0.0
12 9 1.0 1.0 0.0
12 10 1.48 1.0 0.0245
12 11 1.48 1.0 0.0245
12 12 1.48 1.0 0.0245
12 13 2.11 1.0 0.0448
12 14 2.11 1.0 0.0448
12 15 2.11 1.0 0.0448
12 16 1.0 1.0 0.0
12 17 1.0 1.0 0.0
12 18 1.0 1.0 0.0
12 19 1.0 1.0 0.0
13 0 1.0 1.0 0.0
13 1 1.0 1.0 0.0
13 2 1.0 1.0 0.0
13 3 1.0 1.0 0.0
13 4 1.0 1.0 0.0
13 5 1.0 1.0 0.0
13 6 1.0 1.0 0.0
13 7 1.0 1.0 0.0
13 8 1.0 1.0 0.0
13 9 1.0 1.0 0.0
13 10 1.0 1.0 0.0
13 11 1.48 1.0 0.0245
13 12 2.11 1.0 0.0448
13 13 2.11 1.0 0.0448
13 14 2.11 1.0 0.0448
13 15 2.11 1.0 0.0448
13 16 2.11 1.0 0.0448
13 17 1.0 1.0 0.0
13 18 1.0 1.0 0.0
13 19 1.0 1.0 0.0
14 0 1.0 1.0 0.0
14 1 1.0 1.0 0.0
14 2 1.0 1.0 0.0
14 3 2.18 1.0 0.0348
14 4 1.0 1.0 0.0
14 5 1.0 1.0 0.0
14 6 1.0 1.0 0.0
14 7 1.0 1.0 0.0
14 8 1.0 1.0 0.0
14 9 1.0 1.0 0.0
14 10 1.0 1.0 0.0
14 11 1.0 1.0 0.0
14 12 1.0 1.0 0.0
14 13 2.11 1.0 0.0448
14 14 2.11 1.0 0.0448
14 15 2.11 1.0 0.0448
14 16 2.39 1.0 0.0177
14 17 1.0 1.0 0.0
14 18 1.0 1.0 0.0
14 19 1.0 1.0 0.0
15 0 1.0 1.0 0.0
15 1 1.0 1.0 0.0
15 2 2.18 1.0 0.0348
15 3 2.18 1.0 0.0348
15 4 2.18 1.0 0.0348
15 5 1.0 1.0 0.0
15 6 1.0 1.0 0.0
15 7 1.0 1.0 0.0
15 8 1.0 1.0 0.0
15 9 1.23 1.0 0.0079
15 10 1.0 1.0 0.0
15 11 1.0 1.0 0.0
15 12 1.0 1.0 0.0
15 13 1.0 1.0 0.0
15 14 2.11 1.0 0.0448
15 15 2.39 1.0 0.0177
15 16 2.39 1.0 0.0177
15 17 2.39 1.0 0.0177
15 18 1.0 1.0 0.0
15 19 1.0 1.0 0.0
16 0 1.0 1.0 0.0
16 1 2.18 1.0 0.0348
16 2 2.18 1.0 0.0348
16 3 2.18 1.0 0.0348
16 4 2.18 1.0 0.0348
16 5 2.18 1.0 0.0348
16 6 1.0 1.0 0.0
16 7 1.0 1.0 0.0
16 8 1.23 1.0 0.0079
16 9 1.23 1.0 0.0079
16 10 1.23 1.0 0.0079
16 11 1.0 1.0 0.0
16 12 1.0 1.0 0.0
16 13 1.0 1.0 0.0
16 14 2.39 1.0 0.0177
16 15 2.39 1.0 0.0177
16 16 2.39 1.0 0.0177
16 17 2.39 1.0 0.0177
16 18 2.39 1.0 0.0177
16 19 1.0 1.0 0.0
17 0 1.0 1.0 0.0
17 1 1.0 1.0 0.0
17 2 2.18 1.0 0.0348
17 3 2.18 1.0 0.0348
17 4 2.18 1.0 0.0348
17 5 1.0 1.0 0.0
17 6 1.0 1.0 0.0
17 7 1.23 1.0 0.0079
17 8 1.23 1.0 0.0079
17 9 1.23 1.0 0.0079
17 10 1.23 1.0 0.0079
17 11 1.23 1.0 0.0079
17 12 1.0 1.0 0.0
17 13 1.0 1.0 0.0
17 14 1.0 1.0 0.0
17 15 2.39 1.0 0.0177
17 16 2.39 1.0 0.0177
17 17 2.39 1.0 0.0177
17 18 1.0 1.0 0.0
17 19 1.0 1.0 0.0
18 0 1.0 1.0 0.0
18 1 1.0 1.0 0.0
18 2 1.0 1.0 0.0
18 3 2.18 1.0 0.0348
18 4 1.0 1.0 0.0
18 5 1.0 1.0 0.0
18 6 1.0 1.0 0.0
18 7 1.0 1.0 0.0
18 8 1.23 1.0 0.0079
18 9 1.23 1.0 0.0079
18 10 1.23 1.0 0.0079
18 11 1.0 1.0 0.0
18 12 1.0 1.0 0.0
18 13 1.0 1.0 0.0
18 14 1.0 1.0 0.0
18 15 1.0 1.0 0.0
18 16 2.39 1.0 0.0177
18 17 1.0 1.0 0.0
18 18 1.0 1.0 0.0
18 19 1.0 1.0 0.0
19 0 1.0 1.0 0.0
19 1 1.0 1.0 0.0
19 2 1.0 1.0 0.0
19 3 1.0 1.0 0.0
19 4 1.0 1.0 0.0
19 5 1.0 1.0 0.0
19 6 1.0 1.0 0.0
19 7 1.0 1.0 0.0
19 8 1.0 1.0 0.0
19 9 1.23 1.0 0.0079
19 10 1.0 1.0 0.0
19 11 1.0 1.0 0.0
19 12 1.0 1.0 0.0
19 13 1.0 1.0 0.0
19 14 1.0 1.0 0.0
19 15 1.0 1.0 0.0
19 16 1.0 1.0 0.0
19 17 1.0 1.0 0.0
19 18 1.0 1.0 0.0
19 19 1.0 1.0 0.0
