# z x epsr mur sigma
0 0 1.0 1.0 0.0
0 1 1.0 1.0 0.0
0 2 1.0 1.0 0.0
0 3 1.0 1.0 0.0
0 4 1.0 1.0 0.0
0 5 1.0 1.0 0.0
0 6 1.0 1.0 0.0
0 7 1.0 1.0 0.0
0 8 1.0 1.0 0.0
0 9 1.0 1.0 0.0
0 10 1.0 1.0 0.0
0 11 1.0 1.0 0.0
0 12 1.0 1.0 0.0
0 13 1.0 1.0 0.0
0 14 1.0 1.0 0.0
0 15 1.0 1.0 0.0
0 16 1.0 1.0 0.0
0 17 1.0 1.0 0.0
0 18 1.0 1.0 0.0
0 19 1.0 1.0 0.0
1 0 1.0 1.0 0.0
1 1 1.0 1.0 0.0
1 2 1.0 1.0 0.0
1 3 1.0 1.0 0.0
1 4 1.0 1.0 0.0
1 5 1.0 1.0 0.0
1 6 1.29 1.0 0.042
1 7 1.0 1.0 0.0
1 8 1.0 1.0 0.0
1 9 1.0 1.0 0.0
1 10 1.0 1.0 0.0
1 11 1.0 1.0 0.0
1 12 1.0 1.0 0.0
1 13 1.0 1.0 0.0
1 14 1.0 1.0 0.0
1 15 1.0 1.0 0.0
1 16 1.0 1.0 0.0
1 17 1.0 1.0 0.0
1 18 1.0 1.0 0.0
1 19 1.0 1.0 0.0
2 0 1.0 1.0 0.0
2 1 1.0 1.0 0.0
2 2 1.0 1.0 0.0
2 3 1.0 1.0 0.0
2 4 1.0 1.0 0.0
2 5 1.0 1.0 0.0
2 6 1.29 1.0 0.042
2 7 1.29 1.0 0.042
2 8 1.29 1.0 0.042
2 9 1.0 1.0 0.0
2 10 1.0 1.0 0.0
2 11 1.0 1.0 0.0
2 12 1.0 1.0 0.0
2 13 1.0 1.0 0.0
2 14 1.0 1.0 0.0
2 15 2.1 1.0 0.0229
2 16 1.88 1.0 0.0261
2 17 1.88 1.0 0.0261
2 18 1.88 1.0 0.0261
2 19 1.88 1.0 0.0261
3 0 1.0 1.0 0.0
3 1 1.0 1.0 0.0
3 2 1.58 1.0 0.0319
3 3 1.0 1.0 0.0
3 4 1.0 1.0 0.0
3 5 1.0 1.0 0.0
3 6 1.29 1.0 0.042
3 7 1.29 1.0 0.042
3 8 1.29 1.0 0.042
3 9 1.29 1.0 0.042
3 10 1.29 1.0 0.042
3 11 1.0 1.0 0.0
3 12 1.0 1.0 0.0
3 13 1.0 1.0 0.0
3 14 2.1 1.0 0.0229
3 15 2.1 1.0 0.0229
3 16 2.1 1.0 0.0229
3 17 1.88 1.0 0.0261
3 18 1.88 1.0 0.0261
3 19 1.88 1.0 0.0261
4 0 1.0 1.0 0.0
4 1 1.58 1.0 0.0319
4 2 1.58 1.0 0.0319
4 3 1.58 1.0 0.0319
4 4 1.0 1.0 0.0
4 5 1.0 1.0 0.0
4 6 1.29 1.0 0.042
4 7 1.29 1.0 0.042
4 8 1.29 1.0 0.042
4 9 1.29 1.0 0.042
4 10 1.29 1.0 0.042
4 11 1.29 1.0 0.042
4 12 1.29 1.0 0.042
4 13 2.1 1.0 0.0229
4 14 2.1 1.0 0.0229
4 15 2.1 1.0 0.0229
4 16 2.1 1.0 0.0229
4 17 2.1 1.0 0.0229
4 18 1.88 1.0 0.0261
4 19 1.0 1.0 0.0
5 0 1.58 1.0 0.0319
5 1 1.58 1.0 0.0319
5 2 1.58 1.0 0.0319
5 3 1.58 1.0 0.0319
5 4 1.58 1.0 0.0319
5 5 1.0 1.0 0.0
5 6 1.29 1.0 0.042
5 7 1.29 1.0 0.042
5 8 1.29 1.0 0.042
5 9 1.29 1.0 0.042
5 10 1.29 1.0 0.042
5 11 1.0 1.0 0.0
5 12 1.0 1.0 0.0
5 13 1.0 1.0 0.0
5 14 2.1 1.0 0.0229
5 15 2.1 1.0 0.0229
5 16 2.1 1.0 0.0229
5 17 1.0 1.0 0.0
5 18 1.88 1.0 0.0261
5 19 1.0 1.0 0.0
6 0 1.0 1.0 0.0
6 1 1.58 1.0 0.0319
6 2 1.58 1.0 0.0319
6 3 1.58 1.0 0.0319
6 4 1.0 1.0 0.0
6 5 1.0 1.0 0.0
6 6 1.29 1.0 0.042
6 7 1.29 1.0 0.042
6 8 1.29 1.0 0.042
6 9 1.29 1.0 0.042
6 10 1.0 1.0 0.0
6 11 1.0 1.0 0.0
6 12 1.0 1.0 0.0
6 13 1.0 1.0 0.0
6 14 1.0 1.0 0.0
6 15 2.1 1.0 0.0229
6 16 1.0 1.0 0.0
6 17 1.0 1.0 0.0
6 18 1.0 1.0 0.0
6 19 1.0 1.0 0.0
7 0 1.0 1.0 0.0
7 1 1.0 1.0 0.0
7 2 1.58 1.0 0.0319
7 3 1.0 1.0 0.0
7 4 1.0 1.0 0.0
7 5 1.0 1.0 0.0
7 6 1.29 1.0 0.042
7 7 1.29 1.0 0.042
7 8 1.0 1.0 0.0
7 9 1.0 1.0 0.0
7 10 1.0 1.0 0.0
7 11 1.0 1.0 0.0
7 12 1.0 1.0 0.0
7 13 1.0 1.0 0.0
7 14 1.0 1.0 0.0
7 15 1.0 1.0 0.0
7 16 1.0 1.0 0.0
7 17 1.0 1.0 0.0
7 18 1.0 1.0 0.0
7 19 1.0 1.0 0.0
8 0 1.0 1.0 0.0
8 1 1.0 1.0 0.0
8 2 1.0 1.0 0.0
8 3 1.0 1.0 0.0
8 4 1.0 1.0 0.0
8 5 1.0 1.0 0.0
8 6 1.29 1.0 0.042
8 7 1.0 1.0 0.0
8 8 1.0 1.0 0.0
8 9 1.0 1.0 0.0
8 10 1.0 1.0 0.0
8 11 1.0 1.0 0.0
8 12 1.0 1.0 0.0
8 13 1.41 1.0 0.0122
8 14 1.41 1.0 0.0122
8 15 1.41 1.0 0.0122
8 16 1.41 1.0 0.0122
8 17 1.0 1.0 0.0
8 18 1.0 1.0 0.0
8 19 1.0 1.0 0.0
9 0 1.0 1.0 0.0
9 1 1.0 1.0 0.0
9 2 1.0 1.0 0.0
9 3 1.0 1.0 0.0
9 4 1.0 1.0 0.0
9 5 1.0 1.0 0.0
9 6 1.0 1.0 0.0
9 7 1.0 1.0 0.0
9 8 1.0 1.0 0.0
9 9 1.0 1.0 0.0
9 10 1.0 1.0 0.0
9 11 1.0 1.0 0.0
9 12 1.0 1.0 0.0
9 13 1.41 1.0 0.0122
9 14 1.41 1.0 0.0122
9 15 1.41 1.0 0.0122
9 16 1.41 1.0 0.0122
9 17 1.0 1.0 0.0
9 18 1.0 1.0 0.0
9 19 1.0 1.0 0.0
10 0 1.0 1.0 0.0
10 1 1.0 1.0 0.0
10 2 1.0 1.0 0.0
10 3 1.0 1.0 0.0
10 4 1.0 1.0 0.0
10 5 1.0 1.0 0.0
10 6 1.0 1.0 0.0
10 7 1.0 1.0 0.0
10 8 1.0 1.0 0.0
10 9 1.0 1.0 0.0
10 10 1.0 1.0 0.0
10 11 1.0 1.0 0.0
10 12 1.0 1.0 0.0
10 13 1.41 1.0 0.0122
10 14 1.41 1.0 0.0122
10 15 1.41 1.0 0.0122
10 16 1.41 1.0 0.0122
10 17 1.0 1.0 0.0
10 18 1.0 1.0 0.0
10 19 1.0 1.0 0.0
11 0 1.0 1.0 0.0
11 1 1.0 1.0 0.0
11 2 1.0 1.0 0.0
11 3 1.0 1.0 0.0
11 4 1.0 1.0 0.0
11 5 1.0 1.0 0.0
11 6 1.0 1.0 0.0
11 7 1.0 1.0 0.0
11 8 1.0 1.0 0.0
11 9 1.0 1.0 0.0
11 10 1.0 1.0 0.0
11 11 1.0 1.0 0.0
11 12 1.0 1.0 0.0
11 13 1.41 1.0 0.0122
11 14 1.41 1.0 0.0122
11 15 1.41 1.0 0.0122
11 16 1.41 1.0 0.0122
11 17 1.0 1.0 0.0
11 18 1.0 1.0 0.0
11 19 1.0 1.0 0.0
12 0 1.0 1.0 0.0
12 1 1.0 1.0 0.0
12 2 1.0 1.0 0.0
12 3 1.0 1.0 0.0
12 4 1.0 1.0 0.0
12 5 1.0 1.0 0.0
12 6 1.0 1.0 0.0
12 7 1.2 1.0 0.0381
12 8 1.0 1.0 0.0
12 9 1.0 1.0 0.0
12 10 1.0 1.0 0.0
12 11 1.0 1.0 0.0
12 12 1.0 1.0 0.0
12 13 1.0 1.0 0.0
12 14 1.0 1.0 0.0
12 15 1.0 1.0 0.0
12 16 1.0 1.0 0.0
12 17 1.0 1.0 0.0
12 18 1.0 1.0 0.0
12 19 1.0 1.0 0.0
13 0 1.0 1.0 0.0
13 1 1.0 1.0 0.0
13 2 1.0 1.0 0.0
13 3 1.0 1.0 0.0
13 4 1.0 1.0 0.0
13 5 1.0 1.0 0.0
13 6 1.2 1.0 0.0381
13 7 1.2 1.0 0.0381
13 8 1.2 1.0 0.0381
13 9 1.0 1.0 0.0
13 10 1.0 1.0 0.0
13 11 1.0 1.0 0.0
13 12 1.0 1.0 0.0
13 13 1.0 1.0 0.0
13 14 1.0 1.0 0.0
13 15 1.0 1.0 0.0
13 16 1.0 1.0 0.0
13 17 1.0 1.0 0.0
13 18 1.0 1.0 0.0
13 19 1.0 1.0 0.0
14 0 1.0 1.0 0.0
14 1 1.0 1.0 0.0
14 2 1.0 1.0 0.0
14 3 1.0 1.0 0.0
14 4 1.0 1.0 0.0
14 5 1.2 1.0 0.0381
14 6 1.2 1.0 0.0381
14 7 1.2 1.0 0.0381
14 8 1.2 1.0 0.0381
14 9 1.2 1.0 0.0381
14 10 1.0 1.0 0.0
14 11 1.0 1.0 0.0
14 12 1.0 1.0 0.0
14 13 1.0 1.0 0.0
14 14 1.0 1.0 0.0
14 15 1.0 1.0 0.0
14 16 1.0 1.0 0.0
14 17 1.0 1.0 0.0
14 18 1.0 1.0 0.0
14 19 1.0 1.0 0.0
15 0 1.0 1.0 0.0
15 1 1.0 1.0 0.0
15 2 1.0 1.0 0.0
15 3 1.06 1.0 0.0364
15 4 1.0 1.0 0.0
15 5 1.0 1.0 0.0
15 6 1.2 1.0 0.0381
15 7 1.2 1.0 0.0381
15 8 1.2 1.0 0.0381
15 9 1.0 1.0 0.0
15 10 1.0 1.0 0.0
15 11 1.0 1.0 0.0
15 12 1.0 1.0 0.0
15 13 2.43 1.0 0.0482
15 14 1.0 1.0 0.0
15 15 1.0 1.0 0.0
15 16 1.0 1.0 0.0
15 17 1.0 1.0 0.0
15 18 1.0 1.0 0.0
15 19 1.0 1.0 0.0
16 0 1.0 1.0 0.0
16 1 1.0 1.0 0.0
16 2 1.06 1.0 0.0364
16 3 1.06 1.0 0.0364
16 4 1.06 1.0 0.0364
16 5 1.0 1.0 0.0
16 6 1.0 1.0 0.0
16 7 1.2 1.0 0.0381
16 8 1.0 1.0 0.0
16 9 1.0 1.0 0.0
16 10 1.0 1.0 0.0
16 11 1.0 1.0 0.0
16 12 1.0 1.0 0.0
16 13 2.43 1.0 0.0482
16 14 2.43 1.0 0.0482
16 15 1.0 1.0 0.0
16 16 1.0 1.0 0.0
16 17 1.0 1.0 0.0
16 18 1.0 1.0 0.0
16 19 1.0 1.0 0.0
17 0 1.0 1.0 0.0
17 1 1.06 1.0 0.0364
17 2 1.06 1.0 0.0364
17 3 1.06 1.0 0.0364
17 4 1.06 1.0 0.0364
17 5 1.06 1.0 0.0364
17 6 1.0 1.0 0.0
17 7 1.0 1.0 0.0
17 8 1.0 1.0 0.0
17 9 1.0 1.0 0.0
17 10 1.0 1.0 0.0
17 11 1.0 1.0 0.0
17 12 1.0 1.0 0.0
17 13 2.43 1.0 0.0482
17 14 2.43 1.0 0.0482
17 15 2.43 1.0 0.0482
17 16 2.43 1.0 0.0482
17 17 1.0 1.0 0.0
17 18 1.0 1.0 0.0
17 19 1.0 1.0 0.0
18 0 1.0 1.0 0.0
18 1 1.0 1.0 0.0
18 2 1.06 1.0 0.0364
18 3 1.06 1.0 0.0364
18 4 1.06 1.0 0.0364
18 5 1.0 1.0 0.0
18 6 1.0 1.0 0.0
18 7 1.0 1.0 0.0
18 8 1.0 1.0 0.0
18 9 1.0 1.0 0.0
18 10 1.0 1.0 0.0
18 11 1.0 1.0 0.0
18 12 1.0 1.0 0.0
18 13 2.43 1.0 0.0482
18 14 2.43 1.0 0.0482
18 15 1.0 1.0 0.0
18 16 1.0 1.0 0.0
18 17 1.0 1.0 0.0
18 18 1.0 1.0 0.0
18 19 1.0 1.0 0.0
19 0 1.0 1.0 0.0
19 1 1.0 1.0 0.0
19 2 1.0 1.0 0.0
19 3 1.06 1.0 0.0364
19 4 1.0 1.0 0.0
19 5 1.0 1.0 0.0
19 6 1.0 1.0 0.0
19 7 1.0 1.0 0.0
19 8 1.0 1.0 0.0
19 9 1.0 1.0 0.0
19 10 1.0 1.0 0.0
19 11 1.0 1.0 0.0
19 12 1.0 1.0 0.0
19 13 2.43 1.0 0.0482
19 14 1.0 1.0 0.0
19 15 1.0 1.0 0.0
19 16 1.0 1.0 0.0
19 17 1.0 1.0 0.0
19 18 1.0 1.0 0.0
19 19 1.0 1.0 0.0
