# z x epsr mur sigma
0 0 1.0 1.0 0.0
0 1 1.0 1.0 0.0
0 2 1.0 1.0 0.0
0 3 1.0 1.0 0.0
0 4 1.0 1.0 0.0
0 5 1.0 1.0 0.0
0 6 1.0 1.0 0.0
0 7 1.0 1.0 0.0
0 8 1.0 1.0 0.0
0 9 1.0 1.0 0.0
0 10 1.0 1.0 0.0
0 11 1.0 1.0 0.0
0 12 1.0 1.0 0.0
0 13 1.0 1.0 0.0
0 14 1.0 1.0 0.0
0 15 1.0 1.0 0.0
0 16 1.0 1.0 0.0
0 17 1.0 1.0 0.0
0 18 1.0 1.0 0.0
0 19 1.0 1.0 0.0
1 0 1.0 1.0 0.0
1 1 1.0 1.0 0.0
1 2 1.0 1.0 0.0
1 3 1.0 1.0 0.0
1 4 1.0 1.0 0.0
1 5 1.0 1.0 0.0
1 6 1.0 1.0 0.0
1 7 1.0 1.0 0.0
1 8 1.0 1.0 0.0
1 9 1.0 1.0 0.0
1 10 1.0 1.0 0.0
1 11 1.0 1.0 0.0
1 12 1.0 1.0 0.0
1 13 1.0 1.0 0.0
1 14 1.0 1.0 0.0
1 15 1.0 1.0 0.0
1 16 1.0 1.0 0.0
1 17 1.0 1.0 0.0
1 18 1.0 1.0 0.0
1 19 1.0 1.0 0.0
2 0 1.0 1.0 0.0
2 1 1.0 1.0 0.0
2 2 1.0 1.0 0.0
2 3 1.0 1.0 0.0
2 4 1.0 1.0 0.0
2 5 1.0 1.0 0.0
2 6 1.0 1.0 0.0
2 7 1.0 1.0 0.0
2 8 1.0 1.0 0.0
2 9 1.0 1.0 0.0
2 10 1.0 1.0 0.0
2 11 1.0 1.0 0.0
2 12 1.0 1.0 0.0
2 13 1.0 1.0 0.0
2 14 1.0 1.0 0.0
2 15 1.0 1.0 0.0
2 16 1.0 1.0 0.0
2 17 1.0 1.0 0.0
2 18 2.46 1.0 0.0279
2 19 2.46 1.0 0.0279
3 0 1.0 1.0 0.0
3 1 1.0 1.0 0.0
3 2 1.0 1.0 0.0
3 3 1.0 1.0 0.0
3 4 1.0 1.0 0.0
3 5 1.0 1.0 0.0
3 6 1.0 1.0 0.0
3 7 1.0 1.0 0.0
3 8 1.0 1.0 0.0
3 9 1.0 1.0 0.0
3 10 1.0 1.0 0.0
3 11 1.0 1.0 0.0
3 12 1.0 1.0 0.0
3 13 1.0 1.0 0.0
3 14 1.0 1.0 0.0
3 15 1.0 1.0 0.0
3 16 1.0 1.0 0.0
3 17 1.0 1.0 0.0
3 18 2.46 1.0 0.0279
3 19 2.46 1.0 0.0279
4 0 1.0 1.0 0.0
4 1 1.0 1.0 0.0
4 2 1.0 1.0 0.0
4 3 1.0 1.0 0.0
4 4 1.0 1.0 0.0
4 5 1.0 1.0 0.0
4 6 1.0 1.0 0.0
4 7 1.0 1.0 0.0
4 8 1.0 1.0 0.0
4 9 1.0 1.0 0.0
4 10 1.0 1.0 0.0
4 11 1.0 1.0 0.0
4 12 1.89 1.0 0.0156
4 13 1.0 1.0 0.0
4 14 1.0 1.0 0.0
4 15 1.0 1.0 0.0
4 16 1.0 1.0 0.0
4 17 1.0 1.0 0.0
4 18 2.46 1.0 0.0279
4 19 2.46 1.0 0.0279
5 0 1.0 1.0 0.0
5 1 1.0 1.0 0.0
5 2 1.0 1.0 0.0
5 3 1.0 1.0 0.0
5 4 1.0 1.0 0.0
5 5 1.0 1.0 0.0
5 6 1.0 1.0 0.0
5 7 1.0 1.0 0.0
5 8 1.0 1.0 0.0
5 9 1.0 1.0 0.0
5 10 1.0 1.0 0.0
5 11 1.89 1.0 0.0156
5 12 1.89 1.0 0.0156
5 13 1.89 1.0 0.0156
5 14 1.0 1.0 0.0
5 15 1.0 1.0 0.0
5 16 1.0 1.0 0.0
5 17 1.0 1.0 0.0
5 18 2.46 1.0 0.0279
5 19 2.46 1.0 0.0279
6 0 1.0 1.0 0.0
6 1 1.0 1.0 0.0
6 2 1.0 1.0 0.0
6 3 1.0 1.0 0.0
6 4 1.97 1.0 0.0275
6 5 1.0 1.0 0.0
6 6 1.0 1.0 0.0
6 7 1.0 1.0 0.0
6 8 1.0 1.0 0.0
6 9 1.0 1.0 0.0
6 10 1.89 1.0 0.0156
6 11 1.89 1.0 0.0156
6 12 1.89 1.0 0.0156
6 13 1.89 1.0 0.0156
6 14 1.89 1.0 0.0156
6 15 1.0 1.0 0.0
6 16 1.0 1.0 0.0
6 17 1.0 1.0 0.0
6 18 1.0 1.0 0.0
6 19 1.0 1.0 0.0
7 0 1.0 1.0 0.0
7 1 1.0 1.0 0.0
7 2 1.0 1.0 0.0
7 3 1.97 1.0 0.0275
7 4 1.97 1.0 0.0275
7 5 1.97 1.0 0.0275
7 6 1.0 1.0 0.0
7 7 1.0 1.0 0.0
7 8 1.0 1.0 0.0
7 9 1.0 1.0 0.0
7 10 1.0 1.0 0.0
7 11 1.89 1.0 0.0156
7 12 1.89 1.0 0.0156
7 13 1.89 1.0 0.0156
7 14 1.0 1.0 0.0
7 15 1.0 1.0 0.0
7 16 1.0 1.0 0.0
7 17 1.0 1.0 0.0
7 18 1.0 1.0 0.0
7 19 1.0 1.0 0.0
8 0 1.0 1.0 0.0
8 1 1.0 1.0 0.0
8 2 1.97 1.0 0.0275
8 3 1.97 1.0 0.0275
8 4 1.97 1.0 0.0275
8 5 1.97 1.0 0.0275
8 6 1.97 1.0 0.0275
8 7 1.0 1.0 0.0
8 8 1.0 1.0 0.0
8 9 1.0 1.0 0.0
8 10 1.0 1.0 0.0
8 11 1.0 1.0 0.0
8 12 1.89 1.0 0.0156
8 13 1.0 1.0 0.0
8 14 1.0 1.0 0.0
8 15 1.0 1.0 0.0
8 16 1.0 1.0 0.0
8 17 1.0 1.0 0.0
8 18 1.0 1.0 0.0
8 19 1.0 1.0 0.0
9 0 1.0 1.0 0.0
9 1 1.0 1.0 0.0
9 2 1.0 1.0 0.0
9 3 1.97 1.0 0.0275
9 4 1.97 1.0 0.0275
9 5 1.97 1.0 0.0275
9 6 1.0 1.0 0.0
9 7 1.0 1.0 0.0
9 8 1.0 1.0 0.0
9 9 1.0 1.0 0.0
9 10 1.0 1.0 0.0
9 11 1.0 1.0 0.0
9 12 1.0 1.0 0.0
9 13 1.0 1.0 0.0
9 14 1.0 1.0 0.0
9 15 1.0 1.0 0.0
9 16 1.0 1.0 0.0
9 17 1.0 1.0 0.0
9 18 1.0 1.0 0.0
9 19 1.0 1.0 0.0
10 0 1.0 1.0 0.0
10 1 1.0 1.0 0.0
10 2 1.0 1.0 0.0
10 3 1.0 1.0 0.0
10 4 1.97 1.0 0.0275
10 5 1.0 1.0 0.0
10 6 1.0 1.0 0.0
10 7 2.07 1.0 0.0096
10 8 1.0 1.0 0.0
10 9 1.0 1.0 0.0
10 10 1.0 1.0 0.0
10 11 1.0 1.0 0.0
10 12 1.0 1.0 0.0
10 13 1.0 1.0 0.0
10 14 1.0 1.0 0.0
10 15 1.0 1.0 0.0
10 16 1.0 1.0 0.0
10 17 1.0 1.0 0.0
10 18 1.0 1.0 0.0
10 19 1.0 1.0 0.0
11 0 1.0 1.0 0.0
11 1 1.0 1.0 0.0
11 2 1.0 1.0 0.0
11 3 1.0 1.0 0.0
11 4 1.0 1.0 0.0
11 5 1.0 1.0 0.0
11 6 2.07 1.0 0.0096
11 7 2.07 1.0 0.0096
11 8 1.0 1.0 0.0
11 9 1.0 1.0 0.0
11 10 1.0 1.0 0.0
11 11 1.0 1.0 0.0
11 12 1.0 1.0 0.0
11 13 1.0 1.0 0.0
11 14 1.0 1.0 0.0
11 15 1.0 1.0 0.0
11 16 1.0 1.0 0.0
11 17 1.0 1.0 0.0
11 18 1.0 1.0 0.0
11 19 1.0 1.0 0.0
12 0 1.0 1.0 0.0
12 1 1.0 1.0 0.0
12 2 1.0 1.0 0.0
12 3 1.0 1.0 0.0
12 4 1.0 1.0 0.0
12 5 2.07 1.0 0.0096
12 6 2.07 1.0 0.0096
12 7 2.07 1.0 0.0096
12 8 1.0 1.0 0.0
12 9 1.0 1.0 0.0
12 10 1.0 1.0 0.0
12 11 1.0 1.0 0.0
12 12 1.0 1.0 0.0
12 13 1.0 1.0 0.0
12 14 1.0 1.0 0.0
12 15 1.0 1.0 0.0
12 16 1.0 1.0 0.0
12 17 1.0 1.0 0.0
12 18 1.0 1.0 0.0
12 19 1.0 1.0 0.0
13 0 1.0 1.0 0.0
13 1 1.0 1.0 0.0
13 2 1.0 1.0 0.0
13 3 1.0 1.0 0.0
13 4 2.07 1.0 0.0096
13 5 2.07 1.0 0.0096
13 6 2.07 1.0 0.0096
13 7 2.07 1.0 0.0096
13 8 1.0 1.0 0.0
13 9 1.0 1.0 0.0
13 10 1.0 1.0 0.0
13 11 1.0 1.0 0.0
13 12 1.0 1.0 0.0
13 13 1.0 1.0 0.0
13 14 1.0 1.0 0.0
13 15 1.0 1.0 0.0
13 16 1.0 1.0 0.0
13 17 1.0 1.0 0.0
13 18 1.0 1.0 0.0
13 19 1.0 1.0 0.0
14 0 1.0 1.0 0.0
14 1 1.0 1.0 0.0
14 2 1.0 1.0 0.0
14 3 2.07 1.0 0.0096
14 4 2.07 1.0 0.0096
14 5 2.07 1.0 0.0096
14 6 2.07 1.0 0.0096
14 7 2.07 1.0 0.0096
14 8 1.0 1.0 0.0
14 9 1.0 1.0 0.0
14 10 1.0 1.0 0.0
14 11 1.0 1.0 0.0
14 12 1.0 1.0 0.0
14 13 1.0 1.0 0.0
14 14 1.0 1.0 0.0
14 15 1.0 1.0 0.0
14 16 1.0 1.0 0.0
14 17 1.0 1.0 0.0
14 18 1.0 1.0 0.0
14 19 1.0 1.0 0.0
15 0 1.0 1.0 0.0
15 1 1.0 1.0 0.0
15 2 1.0 1.0 0.0
15 3 1.0 1.0 0.0
15 4 1.0 1.0 0.0
15 5 2.11 1.0 0.0432
15 6 1.0 1.0 0.0
15 7 1.0 1.0 0.0
15 8 2.07 1.0 0.0096
15 9 1.0 1.0 0.0
15 10 1.0 1.0 0.0
15 11 1.0 1.0 0.0
15 12 1.0 1.0 0.0
15 13 1.0 1.0 0.0
15 14 1.0 1.0 0.0
15 15 1.0 1.0 0.0
15 16 1.0 1.0 0.0
15 17 1.0 1.0 0.0
15 18 1.0 1.0 0.0
15 19 1.0 1.0 0.0
16 0 1.0 1.0 0.0
16 1 1.0 1.0 0.0
16 2 1.0 1.0 0.0
16 3 1.0 1.0 0.0
16 4 2.11 1.0 0.0432
16 5 2.11 1.0 0.0432
16 6 2.11 1.0 0.0432
16 7 1.0 1.0 0.0
16 8 1.0 1.0 0.0
16 9 1.0 1.0 0.0
16 10 1.0 1.0 0.0
16 11 1.0 1.0 0.0
16 12 1.0 1.0 0.0
16 13 1.0 1.0 0.0
16 14 1.72 1.0 0.002
16 15 1.72 1.0 0.002
16 16 1.72 1.0 0.002
16 17 1.72 1.0 0.002
16 18 1.72 1.0 0.002
16 19 1.0 1.0 0.0
17 0 1.0 1.0 0.0
17 1 1.0 1.0 0.0
17 2 1.0 1.0 0.0
17 3 2.11 1.0 0.0432
17 4 2.11 1.0 0.0432
17 5 2.11 1.0 0.0432
17 6 2.11 1.0 0.0432
17 7 2.11 1.0 0.0432
17 8 1.0 1.0 0.0
17 9 1.0 1.0 0.0
17 10 1.0 1.0 0.0
17 11 1.0 1.0 0.0
17 12 1.0 1.0 0.0
17 13 1.0 1.0 0.0
17 14 1.0 1.0 0.0
17 15 1.72 1.0 0.002
17 16 1.72 1.0 0.002
17 17 1.72 1.0 0.002
17 18 1.0 1.0 0.0
17 19 1.0 1.0 0.0
18 0 1.0 1.0 0.0
18 1 1.0 1.0 0.0
18 2 1.0 1.0 0.0
18 3 1.0 1.0 0.0
18 4 2.11 1.0 0.0432
18 5 2.11 1.0 0.0432
18 6 2.11 1.0 0.0432
18 7 1.0 1.0 0.0
18 8 1.0 1.0 0.0
18 9 1.0 1.0 0.0
18 10 1.0 1.0 0.0
18 11 1.0 1.0 0.0
18 12 1.0 1.0 0.0
18 13 1.0 1.0 0.0
18 14 1.0 1.0 0.0
18 15 1.0 1.0 0.0
18 16 1.72 1.0 0.002
18 17 1.0 1.0 0.0
18 18 1.0 1.0 0.0
18 19 1.0 1.0 0.0
19 0 1.0 1.0 0.0
19 1 1.0 1.0 0.0
19 2 1.0 1.0 0.0
19 3 1.0 1.0 0.0
19 4 1.0 1.0 0.0
19 5 2.11 1.0 0.0432
19 6 1.0 1.0 0.0
19 7 1.0 1.0 0.0
19 8 1.0 1.0 0.0
19 9 1.0 1.0 0.0
19 10 1.0 1.0 0.0
19 11 1.0 1.0 0.0
19 12 1.0 1.0 0.0
19 13 1.0 1.0 0.0
19 14 1.0 1.0 0.0
19 15 1.0 1.0 0.0
19 16 1.72 1.0 0.002
19 17 1.0 1.0 0.0
19 18 1.0 1.0 0.0
19 19 1.0 1.0 0.0
