# z x epsr mur sigma
0 0 1.0 1.0 0.0
0 1 1.0 1.0 0.0
0 2 1.0 1.0 0.0
0 3 1.0 1.0 0.0
0 4 1.44 1.0 0.0362
0 5 1.0 1.0 0.0
0 6 1.0 1.0 0.0
0 7 1.0 1.0 0.0
0 8 1.0 1.0 0.0
0 9 1.44 1.0 0.0376
0 10 1.0 1.0 0.0
0 11 1.0 1.0 0.0
0 12 1.0 1.0 0.0
0 13 1.0 1.0 0.0
0 14 1.0 1.0 0.0
0 15 1.0 1.0 0.0
0 16 1.0 1.0 0.0
0 17 1.0 1.0 0.0
0 18 1.0 1.0 0.0
0 19 1.0 1.0 0.0
1 0 1.0 1.0 0.0
1 1 1.0 1.0 0.0
1 2 1.0 1.0 0.0
1 3 1.44 1.0 0.0362
1 4 1.44 1.0 0.0362
1 5 1.44 1.0 0.0362
1 6 1.0 1.0 0.0
1 7 1.0 1.0 0.0
1 8 1.44 1.0 0.0376
1 9 1.44 1.0 0.0376
1 10 1.44 1.0 0.0376
1 11 1.0 1.0 0.0
1 12 1.0 1.0 0.0
1 13 1.0 1.0 0.0
1 14 1.0 1.0 0.0
1 15 1.0 1.0 0.0
1 16 1.0 1.0 0.0
1 17 1.0 1.0 0.0
1 18 1.0 1.0 0.0
1 19 1.0 1.0 0.0
2 0 1.0 1.0 0.0
2 1 1.0 1.0 0.0
2 2 1.44 1.0 0.0362
2 3 1.44 1.0 0.0362
2 4 1.44 1.0 0.0362
2 5 1.44 1.0 0.0362
2 6 1.44 1.0 0.0362
2 7 1.44 1.0 0.0376
2 8 1.44 1.0 0.0376
2 9 1.44 1.0 0.0376
2 10 1.44 1.0 0.0376
2 11 1.44 1.0 0.0376
2 12 1.0 1.0 0.0
2 13 1.0 1.0 0.0
2 14 1.0 1.0 0.0
2 15 1.0 1.0 0.0
2 16 1.0 1.0 0.0
2 17 1.0 1.0 0.0
2 18 1.0 1.0 0.0
2 19 1.0 1.0 0.0
3 0 1.0 1.0 0.0
3 1 1.0 1.0 0.0
3 2 1.0 1.0 0.0
3 3 1.44 1.0 0.0362
3 4 1.44 1.0 0.0362
3 5 1.44 1.0 0.0362
3 6 1.0 1.0 0.0
3 7 1.0 1.0 0.0
3 8 1.44 1.0 0.0376
3 9 1.44 1.0 0.0376
3 10 1.44 1.0 0.0376
3 11 1.0 1.0 0.0
3 12 2.19 1.0 0.0393
3 13 2.19 1.0 0.0393
3 14 2.19 1.0 0.0393
3 15 2.19 1.0 0.0393
3 16 2.19 1.0 0.0393
3 17 2.19 1.0 0.0393
3 18 2.19 1.0 0.0393
3 19 1.0 1.0 0.0
4 0 1.0 1.0 0.0
4 1 1.0 1.0 0.0
4 2 1.0 1.0 0.0
4 3 1.0 1.0 0.0
4 4 1.44 1.0 0.0362
4 5 1.0 1.0 0.0
4 6 1.0 1.0 0.0
4 7 1.0 1.0 0.0
4 8 1.0 1.0 0.0
4 9 1.44 1.0 0.0376
4 10 1.0 1.0 0.0
4 11 1.0 1.0 0.0
4 12 1.0 1.0 0.0
4 13 2.19 1.0 0.0393
4 14 2.19 1.0 0.0393
4 15 2.19 1.0 0.0393
4 16 2.19 1.0 0.0393
4 17 2.19 1.0 0.0393
4 18 1.0 1.0 0.0
4 19 1.0 1.0 0.0
5 0 1.0 1.0 0.0
5 1 1.0 1.0 0.0
5 2 1.0 1.0 0.0
5 3 1.0 1.0 0.0
5 4 1.0 1.0 0.0
5 5 1.33 1.0 0.0025
5 6 1.0 1.0 0.0
5 7 1.0 1.0 0.0
5 8 1.0 1.0 0.0
5 9 1.0 1.0 0.0
5 10 1.0 1.0 0.0
5 11 1.0 1.0 0.0
5 12 1.0 1.0 0.0
5 13 2.19 1.0 0.0393
5 14 2.19 1.0 0.0393
5 15 2.19 1.0 0.0393
5 16 2.19 1.0 0.0393
5 17 2.19 1.0 0.0393
5 18 1.0 1.0 0.0
5 19 1.0 1.0 0.0
6 0 1.0 1.0 0.0
6 1 1.0 1.0 0.0
6 2 1.0 1.0 0.0
6 3 1.0 1.0 0.0
6 4 1.33 1.0 0.0025
6 5 1.33 1.0 0.0025
6 6 1.33 1.0 0.0025
6 7 1.0 1.0 0.0
6 8 1.0 1.0 0.0
6 9 1.0 1.0 0.0
6 10 1.0 1.0 0.0
6 11 1.0 1.0 0.0
6 12 1.0 1.0 0.0
6 13 1.0 1.0 0.0
6 14 2.19 1.0 0.0393
6 15 2.19 1.0 0.0393
6 16 2.19 1.0 0.0393
6 17 1.0 1.0 0.0
6 18 1.0 1.0 0.0
6 19 1.0 1.0 0.0
7 0 1.0 1.0 0.0
7 1 1.0 1.0 0.0
7 2 1.0 1.0 0.0
7 3 1.33 1.0 0.0025
7 4 1.33 1.0 0.0025
7 5 1.33 1.0 0.0025
7 6 1.33 1.0 0.0025
7 7 1.33 1.0 0.0025
7 8 1.0 1.0 0.0
7 9 1.0 1.0 0.0
7 10 1.0 1.0 0.0
7 11 1.0 1.0 0.0
7 12 1.0 1.0 0.0
7 13 1.0 1.0 0.0
7 14 2.19 1.0 0.0393
7 15 2.19 1.0 0.0393
7 16 2.19 1.0 0.0393
7 17 1.0 1.0 0.0
7 18 1.0 1.0 0.0
7 19 1.0 1.0 0.0
8 0 1.0 1.0 0.0
8 1 1.0 1.0 0.0
8 2 1.0 1.0 0.0
8 3 1.0 1.0 0.0
8 4 1.33 1.0 0.0025
8 5 1.33 1.0 0.0025
8 6 1.33 1.0 0.0025
8 7 1.0 1.0 0.0
8 8 1.0 1.0 0.0
8 9 1.0 1.0 0.0
8 10 1.0 1.0 0.0
8 11 1.0 1.0 0.0
8 12 1.0 1.0 0.0
8 13 1.0 1.0 0.0
8 14 1.0 1.0 0.0
8 15 2.19 1.0 0.0393
8 16 1.0 1.0 0.0
8 17 1.0 1.0 0.0
8 18 1.0 1.0 0.0
8 19 1.0 1.0 0.0
9 0 1.0 1.0 0.0
9 1 1.0 1.0 0.0
9 2 1.0 1.0 0.0
9 3 1.0 1.0 0.0
9 4 2.35 1.0 0.0225
9 5 1.33 1.0 0.0025
9 6 1.0 1.0 0.0
9 7 1.0 1.0 0.0
9 8 1.0 1.0 0.0
9 9 1.0 1.0 0.0
9 10 1.0 1.0 0.0
9 11 1.0 1.0 0.0
9 12 1.0 1.0 0.0
9 13 1.0 1.0 0.0
9 14 1.0 1.0 0.0
9 15 2.19 1.0 0.0393
9 16 1.0 1.0 0.0
9 17 1.0 1.0 0.0
9 18 1.0 1.0 0.0
9 19 1.0 1.0 0.0
10 0 1.0 1.0 0.0
10 1 1.0 1.0 0.0
10 2 1.0 1.0 0.0
10 3 2.35 1.0 0.0225
10 4 2.35 1.0 0.0225
10 5 2.35 1.0 0.0225
10 6 1.0 1.0 0.0
10 7 1.0 1.0 0.0
10 8 1.0 1.0 0.0
10 9 1.0 1.0 0.0
10 10 1.0 1.0 0.0
10 11 2.39 1.0 0.0283
10 12 1.0 1.0 0.0
10 13 1.0 1.0 0.0
10 14 1.0 1.0 0.0
10 15 1.0 1.0 0.0
10 16 1.0 1.0 0.0
10 17 1.0 1.0 0.0
10 18 1.0 1.0 0.0
10 19 1.0 1.0 0.0
11 0 1.0 1.0 0.0
11 1 1.0 1.0 0.0
11 2 2.35 1.0 0.0225
11 3 2.35 1.0 0.0225
11 4 2.35 1.0 0.0225
11 5 2.35 1.0 0.0225
11 6 2.35 1.0 0.0225
11 7 1.0 1.0 0.0
11 8 1.0 1.0 0.0
11 9 1.0 1.0 0.0
11 10 2.39 1.0 0.0283
11 11 2.39 1.0 0.0283
11 12 1.0 1.0 0.0
11 13 1.0 1.0 0.0
11 14 1.0 1.0 0.0
11 15 1.0 1.0 0.0
11 16 1.0 1.0 0.0
11 17 1.0 1.0 0.0
11 18 1.0 1.0 0.0
11 19 1.0 1.0 0.0
12 0 1.0 1.0 0.0
12 1 1.0 1.0 0.0
12 2 1.0 1.0 0.0
12 3 2.35 1.0 0.0225
12 4 2.35 1.0 0.0225
12 5 2.35 1.0 0.0225
12 6 1.0 1.0 0.0
12 7 1.0 1.0 0.0
12 8 2.39 1.0 0.0283
12 9 2.39 1.0 0.0283
12 10 2.39 1.0 0.0283
12 11 2.39 1.0 0.0283
12 12 1.0 1.0 0.0
12 13 1.0 1.0 0.0
12 14 1.0 1.0 0.0
12 15 1.0 1.0 0.0
12 16 1.0 1.0 0.0
12 17 1.0 1.0 0.0
12 18 1.0 1.0 0.0
12 19 1.0 1.0 0.0
13 0 1.0 1.0 0.0
13 1 1.0 1.0 0.0
13 2 1.0 1.0 0.0
13 3 1.0 1.0 0.0
13 4 2.35 1.0 0.0225
13 5 1.0 1.0 0.0
13 6 1.0 1.0 0.0
13 7 2.39 1.0 0.0283
13 8 2.39 1.0 0.0283
13 9 2.39 1.0 0.0283
13 10 2.39 1.0 0.0283
13 11 2.39 1.0 0.0283
13 12 1.0 1.0 0.0
13 13 1.0 1.0 0.0
13 14 1.0 1.0 0.0
13 15 1.0 1.0 0.0
13 16 1.0 1.0 0.0
13 17 1.0 1.0 0.0
13 18 1.0 1.0 0.0
13 19 1.0 1.0 0.0
14 0 1.0 1.0 0.0
14 1 1.0 1.0 0.0
14 2 1.0 1.0 0.0
14 3 1.0 1.0 0.0
14 4 1.0 1.0 0.0
14 5 2.39 1.0 0.0283
14 6 2.39 1.0 0.0283
14 7 2.39 1.0 0.0283
14 8 2.39 1.0 0.0283
14 9 2.39 1.0 0.0283
14 10 2.39 1.0 0.0283
14 11 2.39 1.0 0.0283
14 12 1.0 1.0 0.0
14 13 1.0 1.0 0.0
14 14 1.0 1.0 0.0
14 15 1.0 1.0 0.0
14 16 1.0 1.0 0.0
14 17 1.0 1.0 0.0
14 18 1.0 1.0 0.0
14 19 1.0 1.0 0.0
15 0 1.0 1.0 0.0
15 1 1.0 1.0 0.0
15 2 1.0 1.0 0.0
15 3 2.47 1.0 0.0364
15 4 2.47 1.0 0.0364
15 5 2.47 1.0 0.0364
15 6 1.0 1.0 0.0
15 7 2.39 1.0 0.0283
15 8 2.39 1.0 0.0283
15 9 2.39 1.0 0.0283
15 10 2.39 1.0 0.0283
15 11 2.39 1.0 0.0283
15 12 1.0 1.0 0.0
15 13 1.0 1.0 0.0
15 14 1.0 1.0 0.0
15 15 2.18 1.0 0.0399
15 16 2.18 1.0 0.0399
15 17 2.18 1.0 0.0399
15 18 2.18 1.0 0.0399
15 19 1.0 1.0 0.0
16 0 1.0 1.0 0.0
16 1 1.0 1.0 0.0
16 2 1.0 1.0 0.0
16 3 2.47 1.0 0.0364
16 4 2.47 1.0 0.0364
16 5 2.47 1.0 0.0364
16 6 1.0 1.0 0.0
16 7 1.0 1.0 0.0
16 8 1.0 1.0 0.0
16 9 2.39 1.0 0.0283
16 10 2.39 1.0 0.0283
16 11 2.39 1.0 0.0283
16 12 1.0 1.0 0.0
16 13 1.0 1.0 0.0
16 14 1.0 1.0 0.0
16 15 2.18 1.0 0.0399
16 16 2.18 1.0 0.0399
16 17 2.18 1.0 0.0399
16 18 2.18 1.0 0.0399
16 19 1.0 1.0 0.0
17 0 1.0 1.0 0.0
17 1 1.0 1.0 0.0
17 2 1.0 1.0 0.0
17 3 2.47 1.0 0.0364
17 4 2.47 1.0 0.0364
17 5 2.47 1.0 0.0364
17 6 1.0 1.0 0.0
17 7 1.0 1.0 0.0
17 8 1.0 1.0 0.0
17 9 1.0 1.0 0.0
17 10 1.0 1.0 0.0
17 11 2.39 1.0 0.0283
17 12 1.0 1.0 0.0
17 13 1.0 1.0 0.0
17 14 1.0 1.0 0.0
17 15 2.18 1.0 0.0399
17 16 2.18 1.0 0.0399
17 17 2.18 1.0 0.0399
17 18 2.18 1.0 0.0399
17 19 1.0 1.0 0.0
18 0 1.0 1.0 0.0
18 1 1.0 1.0 0.0
18 2 1.0 1.0 0.0
18 3 2.47 1.0 0.0364
18 4 2.47 1.0 0.0364
18 5 2.47 1.0 0.0364
18 6 1.0 1.0 0.0
18 7 1.0 1.0 0.0
18 8 1.0 1.0 0.0
18 9 1.0 1.0 0.0
18 10 1.0 1.0 0.0
18 11 1.0 1.0 0.0
18 12 1.0 1.0 0.0
18 13 1.0 1.0 0.0
18 14 1.0 1.0 0.0
18 15 1.0 1.0 0.0
18 16 1.0 1.0 0.0
18 17 1.0 1.0 0.0
18 18 1.0 1.0 0.0
18 19 1.0 1.0 0.0
19 0 1.0 1.0 0.0
19 1 1.0 1.0 0.0
19 2 1.0 1.0 0.0
19 3 1.0 1.0 0.0
19 4 1.0 1.0 0.0
19 5 1.0 1.0 0.0
19 6 1.0 1.0 0.0
19 7 1.0 1.0 0.0
19 8 1.0 1.0 0.0
19 9 1.0 1.0 0.0
19 10 1.0 1.0 0.0
19 11 1.0 1.0 0.0
19 12 1.0 1.0 0.0
19 13 1.0 1.0 0.0
19 14 1.0 1.0 0.0
19 15 1.0 1.0 0.0
19 16 1.0 1.0 0.0
19 17 1.0 1.0 0.0
19 18 1.0 1.0 0.0
19 19 1.0 1.0 0.0
