# z x epsr mur sigma
0 0 1.0 1.0 0.0
0 1 1.0 1.0 0.0
0 2 1.0 1.0 0.0
0 3 1.0 1.0 0.0
0 4 1.0 1.0 0.0
0 5 1.0 1.0 0.0
0 6 1.0 1.0 0.0
0 7 1.0 1.0 0.0
0 8 1.0 1.0 0.0
0 9 1.0 1.0 0.0
0 10 2.01 1.0 0.0267
0 11 1.0 1.0 0.0
0 12 1.0 1.0 0.0
0 13 1.0 1.0 0.0
0 14 1.0 1.0 0.0
0 15 1.0 1.0 0.0
0 16 1.0 1.0 0.0
0 17 1.0 1.0 0.0
0 18 1.0 1.0 0.0
0 19 1.0 1.0 0.0
1 0 1.0 1.0 0.0
1 1 1.0 1.0 0.0
1 2 1.0 1.0 0.0
1 3 1.0 1.0 0.0
1 4 1.0 1.0 0.0
1 5 1.0 1.0 0.0
1 6 1.0 1.0 0.0
1 7 1.0 1.0 0.0
1 8 1.0 1.0 0.0
1 9 2.01 1.0 0.0267
1 10 2.01 1.0 0.0267
1 11 2.01 1.0 0.0267
1 12 1.0 1.0 0.0
1 13 1.0 1.0 0.0
1 14 1.0 1.0 0.0
1 15 1.0 1.0 0.0
1 16 1.0 1.0 0.0
1 17 1.0 1.0 0.0
1 18 1.0 1.0 0.0
1 19 1.0 1.0 0.0
2 0 1.0 1.0 0.0
2 1 1.0 1.0 0.0
2 2 1.0 1.0 0.0
2 3 1.0 1.0 0.0
2 4 1.0 1.0 0.0
2 5 1.0 1.0 0.0
2 6 1.0 1.0 0.0
2 7 1.0 1.0 0.0
2 8 2.01 1.0 0.0267
2 9 2.01 1.0 0.0267
2 10 2.01 1.0 0.0267
2 11 2.01 1.0 0.0267
2 12 2.01 1.0 0.0267
2 13 1.0 1.0 0.0
2 14 1.0 1.0 0.0
2 15 1.0 1.0 0.0
2 16 1.83 1.0 0.0336
2 17 1.83 1.0 0.0336
2 18 1.83 1.0 0.0336
2 19 1.83 1.0 0.0336
3 0 1.0 1.0 0.0
3 1 1.0 1.0 0.0
3 2 1.0 1.0 0.0
3 3 1.0 1.0 0.0
3 4 1.0 1.0 0.0
3 5 1.0 1.0 0.0
3 6 1.0 1.0 0.0
3 7 1.0 1.0 0.0
3 8 1.0 1.0 0.0
3 9 2.01 1.0 0.0267
3 10 2.01 1.0 0.0267
3 11 2.01 1.0 0.0267
3 12 1.0 1.0 0.0
3 13 1.0 1.0 0.0
3 14 1.0 1.0 0.0
3 15 1.0 1.0 0.0
3 16 1.0 1.0 0.0
3 17 1.83 1.0 0.0336
3 18 1.83 1.0 0.0336
3 19 1.83 1.0 0.0336
4 0 1.0 1.0 0.0
4 1 1.0 1.0 0.0
4 2 1.0 1.0 0.0
4 3 1.0 1.0 0.0
4 4 1.0 1.0 0.0
4 5 1.0 1.0 0.0
4 6 1.0 1.0 0.0
4 7 1.0 1.0 0.0
4 8 1.0 1.0 0.0
4 9 1.0 1.0 0.0
4 10 2.01 1.0 0.0267
4 11 1.0 1.0 0.0
4 12 1.0 1.0 0.0
4 13 1.0 1.0 0.0
4 14 1.0 1.0 0.0
4 15 1.0 1.0 0.0
4 16 1.0 1.0 0.0
4 17 1.0 1.0 0.0
4 18 1.83 1.0 0.0336
4 19 1.0 1.0 0.0
5 0 1.0 1.0 0.0
5 1 1.0 1.0 0.0
5 2 1.0 1.0 0.0
5 3 1.0 1.0 0.0
5 4 1.0 1.0 0.0
5 5 1.0 1.0 0.0
5 6 1.0 1.0 0.0
5 7 1.0 1.0 0.0
5 8 1.0 1.0 0.0
5 9 1.0 1.0 0.0
5 10 1.0 1.0 0.0
5 11 1.0 1.0 0.0
5 12 1.0 1.0 0.0
5 13 1.0 1.0 0.0
5 14 1.0 1.0 0.0
5 15 1.0 1.0 0.0
5 16 1.0 1.0 0.0
5 17 1.0 1.0 0.0
5 18 1.83 1.0 0.0336
5 19 1.0 1.0 0.0
6 0 1.0 1.0 0.0
6 1 1.0 1.0 0.0
6 2 1.0 1.0 0.0
6 3 1.0 1.0 0.0
6 4 1.0 1.0 0.0
6 5 1.0 1.0 0.0
6 6 2.48 1.0 0.0473
6 7 1.0 1.0 0.0
6 8 1.0 1.0 0.0
6 9 1.0 1.0 0.0
6 10 1.0 1.0 0.0
6 11 1.0 1.0 0.0
6 12 1.0 1.0 0.0
6 13 1.0 1.0 0.0
6 14 1.0 1.0 0.0
6 15 1.0 1.0 0.0
6 16 1.0 1.0 0.0
6 17 1.0 1.0 0.0
6 18 1.0 1.0 0.0
6 19 1.0 1.0 0.0
7 0 1.0 1.0 0.0
7 1 1.0 1.0 0.0
7 2 1.0 1.0 0.0
7 3 1.0 1.0 0.0
7 4 2.48 1.0 0.0473
7 5 2.48 1.0 0.0473
7 6 1.0 1.0 0.0
7 7 2.41 1.0 0.0292
7 8 2.41 1.0 0.0292
7 9 2.41 1.0 0.0292
7 10 2.41 1.0 0.0292
7 11 2.41 1.0 0.0292
7 12 1.0 1.0 0.0
7 13 1.0 1.0 0.0
7 14 1.0 1.0 0.0
7 15 1.0 1.0 0.0
7 16 1.0 1.0 0.0
7 17 1.0 1.0 0.0
7 18 1.0 1.0 0.0
7 19 1.0 1.0 0.0
8 0 1.0 1.0 0.0
8 1 2.48 1.0 0.0473
8 2 2.48 1.0 0.0473
8 3 2.48 1.0 0.0473
8 4 2.48 1.0 0.0473
8 5 2.48 1.0 0.0473
8 6 1.0 1.0 0.0
8 7 1.0 1.0 0.0
8 8 2.41 1.0 0.0292
8 9 2.41 1.0 0.0292
8 10 2.41 1.0 0.0292
8 11 1.0 1.0 0.0
8 12 1.0 1.0 0.0
8 13 1.0 1.0 0.0
8 14 1.0 1.0 0.0
8 15 1.0 1.0 0.0
8 16 1.0 1.0 0.0
8 17 1.0 1.0 0.0
8 18 1.0 1.0 0.0
8 19 1.0 1.0 0.0
9 0 1.0 1.0 0.0
9 1 1.0 1.0 0.0
9 2 1.0 1.0 0.0
9 3 2.48 1.0 0.0473
9 4 2.48 1.0 0.0473
9 5 2.48 1.0 0.0473
9 6 1.0 1.0 0.0
9 7 1.0 1.0 0.0
9 8 1.0 1.0 0.0
9 9 2.41 1.0 0.0292
9 10 1.0 1.0 0.0
9 11 1.0 1.0 0.0
9 12 1.0 1.0 0.0
9 13 1.06 1.0 0.0246
9 14 1.0 1.0 0.0
9 15 1.0 1.0 0.0
9 16 1.0 1.0 0.0
9 17 1.0 1.0 0.0
9 18 1.0 1.0 0.0
9 19 1.0 1.0 0.0
10 0 1.0 1.0 0.0
10 1 1.0 1.0 0.0
10 2 1.0 1.0 0.0
10 3 1.0 1.0 0.0
10 4 2.48 1.0 0.0473
10 5 2.48 1.0 0.0473
10 6 1.0 1.0 0.0
10 7 1.0 1.0 0.0
10 8 1.0 1.0 0.0
10 9 2.41 1.0 0.0292
10 10 1.0 1.0 0.0
10 11 1.0 1.0 0.0
10 12 1.06 1.0 0.0246
10 13 1.06 1.0 0.0246
10 14 1.06 1.0 0.0246
10 15 1.0 1.0 0.0
10 16 1.0 1.0 0.0
10 17 1.0 1.0 0.0
10 18 1.0 1.0 0.0
10 19 1.0 1.0 0.0
11 0 1.0 1.0 0.0
11 1 1.0 1.0 0.0
11 2 1.0 1.0 0.0
11 3 1.0 1.0 0.0
11 4 1.0 1.0 0.0
11 5 2.48 1.0 0.0473
11 6 1.0 1.0 0.0
11 7 1.0 1.0 0.0
11 8 1.0 1.0 0.0
11 9 1.0 1.0 0.0
11 10 1.0 1.0 0.0
11 11 1.06 1.0 0.0246
11 12 1.06 1.0 0.0246
11 13 1.06 1.0 0.0246
11 14 1.06 1.0 0.0246
11 15 1.06 1.0 0.0246
11 16 1.0 1.0 0.0
11 17 1.0 1.0 0.0
11 18 1.0 1.0 0.0
11 19 1.0 1.0 0.0
12 0 1.0 1.0 0.0
12 1 1.0 1.0 0.0
12 2 1.0 1.0 0.0
12 3 1.0 1.0 0.0
12 4 1.0 1.0 0.0
12 5 1.0 1.0 0.0
12 6 1.0 1.0 0.0
12 7 1.0 1.0 0.0
12 8 1.0 1.0 0.0
12 9 1.0 1.0 0.0
12 10 1.0 1.0 0.0
12 11 1.0 1.0 0.0
12 12 1.06 1.0 0.0246
12 13 1.06 1.0 0.0246
12 14 1.06 1.0 0.0246
12 15 1.0 1.0 0.0
12 16 1.0 1.0 0.0
12 17 1.64 1.0 0.0281
12 18 1.0 1.0 0.0
12 19 1.0 1.0 0.0
13 0 1.0 1.0 0.0
13 1 1.0 1.0 0.0
13 2 1.0 1.0 0.0
13 3 1.0 1.0 0.0
13 4 1.0 1.0 0.0
13 5 1.0 1.0 0.0
13 6 1.0 1.0 0.0
13 7 2.0 1.0 0.0312
13 8 1.0 1.0 0.0
13 9 1.0 1.0 0.0
13 10 1.0 1.0 0.0
13 11 1.0 1.0 0.0
13 12 1.0 1.0 0.0
13 13 1.06 1.0 0.0246
13 14 1.0 1.0 0.0
13 15 1.0 1.0 0.0
13 16 1.64 1.0 0.0281
13 17 1.64 1.0 0.0281
13 18 1.64 1.0 0.0281
13 19 1.0 1.0 0.0
14 0 1.0 1.0 0.0
14 1 1.0 1.0 0.0
14 2 1.0 1.0 0.0
14 3 1.0 1.0 0.0
14 4 1.0 1.0 0.0
14 5 1.0 1.0 0.0
14 6 1.0 1.0 0.0
14 7 2.0 1.0 0.0312
14 8 2.0 1.0 0.0312
14 9 1.0 1.0 0.0
14 10 1.0 1.0 0.0
14 11 1.0 1.0 0.0
14 12 1.0 1.0 0.0
14 13 1.0 1.0 0.0
14 14 1.0 1.0 0.0
14 15 1.64 1.0 0.0281
14 16 1.64 1.0 0.0281
14 17 1.64 1.0 0.0281
14 18 1.64 1.0 0.0281
14 19 1.64 1.0 0.0281
15 0 1.0 1.0 0.0
15 1 1.0 1.0 0.0
15 2 1.0 1.0 0.0
15 3 1.0 1.0 0.0
15 4 1.0 1.0 0.0
15 5 1.0 1.0 0.0
15 6 1.0 1.0 0.0
15 7 2.0 1.0 0.0312
15 8 2.0 1.0 0.0312
15 9 2.0 1.0 0.0312
15 10 1.0 1.0 0.0
15 11 1.0 1.0 0.0
15 12 1.0 1.0 0.0
15 13 1.0 1.0 0.0
15 14 1.0 1.0 0.0
15 15 1.0 1.0 0.0
15 16 1.64 1.0 0.0281
15 17 1.64 1.0 0.0281
15 18 1.64 1.0 0.0281
15 19 1.0 1.0 0.0
16 0 1.0 1.0 0.0
16 1 1.0 1.0 0.0
16 2 1.0 1.0 0.0
16 3 1.0 1.0 0.0
16 4 1.0 1.0 0.0
16 5 1.0 1.0 0.0
16 6 1.0 1.0 0.0
16 7 2.0 1.0 0.0312
16 8 2.0 1.0 0.0312
16 9 2.0 1.0 0.0312
16 10 2.0 1.0 0.0312
16 11 1.0 1.0 0.0
16 12 1.0 1.0 0.0
16 13 1.0 1.0 0.0
16 14 1.0 1.0 0.0
16 15 1.0 1.0 0.0
16 16 1.0 1.0 0.0
16 17 1.64 1.0 0.0281
16 18 1.0 1.0 0.0
16 19 1.0 1.0 0.0
17 0 1.0 1.0 0.0
17 1 1.0 1.0 0.0
17 2 1.0 1.0 0.0
17 3 1.0 1.0 0.0
17 4 1.0 1.0 0.0
17 5 1.0 1.0 0.0
17 6 1.0 1.0 0.0
17 7 2.0 1.0 0.0312
17 8 2.0 1.0 0.0312
17 9 2.0 1.0 0.0312
17 10 2.0 1.0 0.0312
17 11 2.0 1.0 0.0312
17 12 1.0 1.0 0.0
17 13 1.0 1.0 0.0
17 14 1.0 1.0 0.0
17 15 1.0 1.0 0.0
17 16 1.0 1.0 0.0
17 17 1.0 1.0 0.0
17 18 1.0 1.0 0.0
17 19 1.0 1.0 0.0
18 0 1.0 1.0 0.0
18 1 1.0 1.0 0.0
18 2 1.0 1.0 0.0
18 3 1.0 1.0 0.0
18 4 1.0 1.0 0.0
18 5 1.0 1.0 0.0
18 6 2.0 1.0 0.0312
18 7 1.0 1.0 0.0
18 8 1.0 1.0 0.0
18 9 1.0 1.0 0.0
18 10 1.0 1.0 0.0
18 11 1.0 1.0 0.0
18 12 1.0 1.0 0.0
18 13 1.0 1.0 0.0
18 14 1.0 1.0 0.0
18 15 1.0 1.0 0.0
18 16 1.0 1.0 0.0
18 17 1.0 1.0 0.0
18 18 1.0 1.0 0.0
18 19 1.0 1.0 0.0
19 0 1.0 1.0 0.0
19 1 1.0 1.0 0.0
19 2 1.0 1.0 0.0
19 3 1.0 1.0 0.0
19 4 1.0 1.0 0.0
19 5 1.0 1.0 0.0
19 6 1.0 1.0 0.0
19 7 1.0 1.0 0.0
19 8 1.0 1.0 0.0
19 9 1.0 1.0 0.0
19 10 1.0 1.0 0.0
19 11 1.0 1.0 0.0
19 12 1.0 1.0 0.0
19 13 1.0 1.0 0.0
19 14 1.0 1.0 0.0
19 15 1.0 1.0 0.0
19 16 1.0 1.0 0.0
19 17 1.0 1.0 0.0
19 18 1.0 1.0 0.0
19 19 1.0 1.0 0.0
